"Mo24 Au1 S50 Si32 C1 O2"               
   1.00000000000000     
    15.9083995818999995    0.0000000000000000    0.0000000000000000
    -7.9880832887000004   13.7331712927999998    0.0000000000000000
     0.2800422311000000   -0.8201902501000000   20.1266483256999997
   Mo   Au   S    Si   C    O 
    24     1    50    32     1     2
Direct
  0.0726300030000004  0.1300400049999979  0.3188200000000023
  0.0727899970000010  0.3283999860000009  0.3344500059999973
  0.0642900019999999  0.5194900039999979  0.3328100140000032
  0.0730199959999993  0.7268499730000002  0.3118700090000033
  0.0725599969999990  0.9277600050000032  0.3095700140000019
  0.2752200070000015  0.1302399930000036  0.3185999989999999
  0.2738400100000007  0.3305099900000030  0.3309499920000007
  0.2730799910000030  0.5295100210000001  0.3390400110000016
  0.2710100110000013  0.7261300090000020  0.3285999889999971
  0.2746799889999991  0.9276099799999997  0.3172700109999980
  0.4744600060000010  0.1286000010000024  0.3310500090000019
  0.4742900130000010  0.3298499879999994  0.3328599929999996
  0.4722200040000004  0.5298200249999994  0.3382999900000030
  0.4716399910000035  0.7284899949999968  0.3386900129999972
  0.4732399880000031  0.9286500219999994  0.3332400019999966
  0.6727899910000019  0.1290200050000010  0.3366099890000029
  0.6737700099999984  0.3316999970000012  0.3361899849999972
  0.6698399779999988  0.5222200159999986  0.3301799890000012
  0.6706200240000015  0.7271100279999985  0.3279100060000033
  0.6710000039999997  0.9286900159999973  0.3331300019999972
  0.8706099990000027  0.1273699999999991  0.3312900069999998
  0.8767200110000033  0.3314999939999979  0.3374400140000020
  0.8701099749999983  0.7278599739999976  0.3113099930000018
  0.8697400089999974  0.9277499909999989  0.3170399959999983
  0.8662599920000034  0.5032899979999996  0.3557800049999997
  0.1426299959999966  0.0652899970000007  0.2353599970000033
  0.1430200040000003  0.2671900089999966  0.2438099980000032
  0.1419699940000001  0.4583300050000005  0.2600600119999967
  0.1421899939999989  0.6491100189999983  0.2416599989999995
  0.1442899999999980  0.8582900170000016  0.2331400070000029
  0.3448300060000022  0.0612300000000019  0.2399500009999969
  0.3435899910000018  0.2671900089999966  0.2435999960000004
  0.3401699960000002  0.4625500140000014  0.2597199980000013
  0.3402700130000014  0.6555399889999975  0.2585499879999986
  0.3441300089999970  0.8538399930000011  0.2418300060000007
  0.5406200290000029  0.0569499989999969  0.2562800050000007
  0.5386000279999976  0.2577899990000034  0.2570999860000001
  0.5341299769999992  0.4589200019999993  0.2577500049999983
  0.5328699949999987  0.6560400130000019  0.2580800060000001
  0.5360800030000021  0.8543300030000012  0.2582100030000021
  0.7354400159999983  0.0569400010000010  0.2562200129999965
  0.7398899789999973  0.2586399910000026  0.2616499960000027
  0.7252399919999988  0.4473299980000007  0.2418899979999978
  0.7260500189999988  0.6509799959999967  0.2403600069999996
  0.7286900280000026  0.8544800279999976  0.2415000049999989
  0.9364100100000030  0.0612099989999990  0.2398699969999996
  0.9391899700000010  0.2572300140000010  0.2581599949999998
  0.9416599870000013  0.4452100099999967  0.2402399930000030
  0.9374600049999984  0.6565700170000000  0.2325700069999996
  0.9338999989999976  0.8588500019999969  0.2328499999999991
  0.1385599970000015  0.0619000009999979  0.3902699949999970
  0.1391199979999982  0.2596499919999999  0.4041599930000004
  0.1406800000000032  0.4644300040000005  0.4134500030000012
  0.1345600040000008  0.6663699750000021  0.3988099990000009
  0.1379200069999982  0.8656600119999993  0.3882299959999997
  0.3338499959999979  0.0619999990000011  0.3977800010000010
  0.3366999919999998  0.2605899870000030  0.4033100010000013
  0.3385699990000006  0.4627499879999988  0.4149900079999966
  0.3368099930000028  0.6698300239999995  0.4141199889999996
  0.3344799879999982  0.8664199709999991  0.4020499889999982
  0.5370399950000007  0.0652600009999986  0.4120399950000007
  0.5357400179999985  0.2624900040000000  0.4109799860000010
  0.5390499829999982  0.4657300109999980  0.4121400120000018
  0.5454699989999980  0.6699100140000027  0.4135400059999981
  0.5407199859999992  0.8688399790000005  0.4132399860000007
  0.7412999869999979  0.0648199990000009  0.4121600089999973
  0.7405700090000025  0.2668800060000009  0.4139299989999969
  0.7259600160000019  0.4628799859999972  0.4180200099999993
  0.7448400259999985  0.6675800089999981  0.3979200120000002
  0.7452899809999991  0.8667200209999990  0.4017600119999969
  0.9427099819999967  0.0614099989999985  0.3979400099999992
  0.9407200220000007  0.2599000040000021  0.4118399919999973
  0.9517199989999980  0.4577600060000009  0.4247699980000021
  0.9422500129999989  0.6725199819999972  0.3892199989999980
  0.9418799879999966  0.8659200069999997  0.3880200090000017
  0.0751700029999967  0.1739699990000005  0.0914599970000012
  0.0834499970000024  0.4325399989999994  0.1086599980000003
  0.0801000000000016  0.6825900079999982  0.0859199989999979
  0.0759499970000022  0.9262400269999986  0.0804100040000009
  0.3240000010000017  0.1739699990000005  0.0914900000000003
  0.3217000069999969  0.4188700019999985  0.1028399989999969
  0.3251399990000010  0.6838499899999988  0.0962299999999985
  0.3272100089999981  0.9303600189999983  0.0896399989999992
  0.5793200139999968  0.1892600059999978  0.1138300000000001
  0.5738400219999988  0.4325200019999969  0.1099999990000029
  0.5831099749999993  0.6839600209999972  0.0955199969999967
  0.5778899789999983  0.9318100209999969  0.1107499969999992
  0.8340299729999998  0.1885699930000015  0.1128600019999979
  0.8312600260000025  0.4387499990000023  0.0974899980000004
  0.8278700110000017  0.6828299760000007  0.0853200029999996
  0.8281900289999982  0.9303100110000031  0.0892899999999983
  0.1564999969999974  0.0892700030000029  0.1259499940000026
  0.1567800050000017  0.3360500040000005  0.1412899939999974
  0.1607600000000033  0.6068000200000014  0.1358599960000006
  0.1594700070000030  0.8498399850000027  0.1236800029999969
  0.4039199950000025  0.0943000019999971  0.1351200040000009
  0.4020600019999989  0.3359499869999993  0.1412999929999970
  0.4095900060000019  0.5953900219999966  0.1107600030000029
  0.4044100050000026  0.8503599760000000  0.1379899980000019
  0.6636400220000027  0.1039900029999998  0.1374499949999972
  0.6701200010000008  0.3658100070000003  0.1458899969999976
  0.6691600079999986  0.6071900130000003  0.1348599940000028
  0.6688899990000010  0.8503699899999972  0.1375299990000016
  0.9137099980000016  0.0940999979999972  0.1349799930000017
  0.9184600110000005  0.3650299910000001  0.1441199929999968
  0.9175299999999993  0.6119499799999986  0.1281600000000012
  0.9140899779999998  0.8499600290000018  0.1233500020000022
  0.4167900090000032  0.3681400119999978  0.6181499959999996
  0.4198600049999968  0.3663699920000028  0.5596500039999981
  0.4137299949999971  0.3699100019999975  0.6765099759999984
 
  0.00000000E+00  0.00000000E+00  0.00000000E+00
  0.00000000E+00  0.00000000E+00  0.00000000E+00
  0.00000000E+00  0.00000000E+00  0.00000000E+00
  0.00000000E+00  0.00000000E+00  0.00000000E+00
  0.00000000E+00  0.00000000E+00  0.00000000E+00
  0.00000000E+00  0.00000000E+00  0.00000000E+00
  0.00000000E+00  0.00000000E+00  0.00000000E+00
  0.00000000E+00  0.00000000E+00  0.00000000E+00
  0.00000000E+00  0.00000000E+00  0.00000000E+00
  0.00000000E+00  0.00000000E+00  0.00000000E+00
  0.00000000E+00  0.00000000E+00  0.00000000E+00
  0.00000000E+00  0.00000000E+00  0.00000000E+00
  0.00000000E+00  0.00000000E+00  0.00000000E+00
  0.00000000E+00  0.00000000E+00  0.00000000E+00
  0.00000000E+00  0.00000000E+00  0.00000000E+00
  0.00000000E+00  0.00000000E+00  0.00000000E+00
  0.00000000E+00  0.00000000E+00  0.00000000E+00
  0.00000000E+00  0.00000000E+00  0.00000000E+00
  0.00000000E+00  0.00000000E+00  0.00000000E+00
  0.00000000E+00  0.00000000E+00  0.00000000E+00
  0.00000000E+00  0.00000000E+00  0.00000000E+00
  0.00000000E+00  0.00000000E+00  0.00000000E+00
  0.00000000E+00  0.00000000E+00  0.00000000E+00
  0.00000000E+00  0.00000000E+00  0.00000000E+00
  0.00000000E+00  0.00000000E+00  0.00000000E+00
  0.00000000E+00  0.00000000E+00  0.00000000E+00
  0.00000000E+00  0.00000000E+00  0.00000000E+00
  0.00000000E+00  0.00000000E+00  0.00000000E+00
  0.00000000E+00  0.00000000E+00  0.00000000E+00
  0.00000000E+00  0.00000000E+00  0.00000000E+00
  0.00000000E+00  0.00000000E+00  0.00000000E+00
  0.00000000E+00  0.00000000E+00  0.00000000E+00
  0.00000000E+00  0.00000000E+00  0.00000000E+00
  0.00000000E+00  0.00000000E+00  0.00000000E+00
  0.00000000E+00  0.00000000E+00  0.00000000E+00
  0.00000000E+00  0.00000000E+00  0.00000000E+00
  0.00000000E+00  0.00000000E+00  0.00000000E+00
  0.00000000E+00  0.00000000E+00  0.00000000E+00
  0.00000000E+00  0.00000000E+00  0.00000000E+00
  0.00000000E+00  0.00000000E+00  0.00000000E+00
  0.00000000E+00  0.00000000E+00  0.00000000E+00
  0.00000000E+00  0.00000000E+00  0.00000000E+00
  0.00000000E+00  0.00000000E+00  0.00000000E+00
  0.00000000E+00  0.00000000E+00  0.00000000E+00
  0.00000000E+00  0.00000000E+00  0.00000000E+00
  0.00000000E+00  0.00000000E+00  0.00000000E+00
  0.00000000E+00  0.00000000E+00  0.00000000E+00
  0.00000000E+00  0.00000000E+00  0.00000000E+00
  0.00000000E+00  0.00000000E+00  0.00000000E+00
  0.00000000E+00  0.00000000E+00  0.00000000E+00
  0.00000000E+00  0.00000000E+00  0.00000000E+00
  0.00000000E+00  0.00000000E+00  0.00000000E+00
  0.00000000E+00  0.00000000E+00  0.00000000E+00
  0.00000000E+00  0.00000000E+00  0.00000000E+00
  0.00000000E+00  0.00000000E+00  0.00000000E+00
  0.00000000E+00  0.00000000E+00  0.00000000E+00
  0.00000000E+00  0.00000000E+00  0.00000000E+00
  0.00000000E+00  0.00000000E+00  0.00000000E+00
  0.00000000E+00  0.00000000E+00  0.00000000E+00
  0.00000000E+00  0.00000000E+00  0.00000000E+00
  0.00000000E+00  0.00000000E+00  0.00000000E+00
  0.00000000E+00  0.00000000E+00  0.00000000E+00
  0.00000000E+00  0.00000000E+00  0.00000000E+00
  0.00000000E+00  0.00000000E+00  0.00000000E+00
  0.00000000E+00  0.00000000E+00  0.00000000E+00
  0.00000000E+00  0.00000000E+00  0.00000000E+00
  0.00000000E+00  0.00000000E+00  0.00000000E+00
  0.00000000E+00  0.00000000E+00  0.00000000E+00
  0.00000000E+00  0.00000000E+00  0.00000000E+00
  0.00000000E+00  0.00000000E+00  0.00000000E+00
  0.00000000E+00  0.00000000E+00  0.00000000E+00
  0.00000000E+00  0.00000000E+00  0.00000000E+00
  0.00000000E+00  0.00000000E+00  0.00000000E+00
  0.00000000E+00  0.00000000E+00  0.00000000E+00
  0.00000000E+00  0.00000000E+00  0.00000000E+00
  0.00000000E+00  0.00000000E+00  0.00000000E+00
  0.00000000E+00  0.00000000E+00  0.00000000E+00
  0.00000000E+00  0.00000000E+00  0.00000000E+00
  0.00000000E+00  0.00000000E+00  0.00000000E+00
  0.00000000E+00  0.00000000E+00  0.00000000E+00
  0.00000000E+00  0.00000000E+00  0.00000000E+00
  0.00000000E+00  0.00000000E+00  0.00000000E+00
  0.00000000E+00  0.00000000E+00  0.00000000E+00
  0.00000000E+00  0.00000000E+00  0.00000000E+00
  0.00000000E+00  0.00000000E+00  0.00000000E+00
  0.00000000E+00  0.00000000E+00  0.00000000E+00
  0.00000000E+00  0.00000000E+00  0.00000000E+00
  0.00000000E+00  0.00000000E+00  0.00000000E+00
  0.00000000E+00  0.00000000E+00  0.00000000E+00
  0.00000000E+00  0.00000000E+00  0.00000000E+00
  0.00000000E+00  0.00000000E+00  0.00000000E+00
  0.00000000E+00  0.00000000E+00  0.00000000E+00
  0.00000000E+00  0.00000000E+00  0.00000000E+00
  0.00000000E+00  0.00000000E+00  0.00000000E+00
  0.00000000E+00  0.00000000E+00  0.00000000E+00
  0.00000000E+00  0.00000000E+00  0.00000000E+00
  0.00000000E+00  0.00000000E+00  0.00000000E+00
  0.00000000E+00  0.00000000E+00  0.00000000E+00
  0.00000000E+00  0.00000000E+00  0.00000000E+00
  0.00000000E+00  0.00000000E+00  0.00000000E+00
  0.00000000E+00  0.00000000E+00  0.00000000E+00
  0.00000000E+00  0.00000000E+00  0.00000000E+00
  0.00000000E+00  0.00000000E+00  0.00000000E+00
  0.00000000E+00  0.00000000E+00  0.00000000E+00
  0.00000000E+00  0.00000000E+00  0.00000000E+00
  0.00000000E+00  0.00000000E+00  0.00000000E+00
  0.00000000E+00  0.00000000E+00  0.00000000E+00
  0.00000000E+00  0.00000000E+00  0.00000000E+00
  0.00000000E+00  0.00000000E+00  0.00000000E+00
  0.00000000E+00  0.00000000E+00  0.00000000E+00
