AMSinput                                
   1.00000000000000     
    15.8067502975000007    0.0000000000000000    0.0000000000000000
    -7.9033917847000001   13.6885751944000003    0.0000000000000000
    -0.2618317954000000   -0.1792146163000000   20.1128767699000015
   Mo   S    Si   C    O 
    25    50    32     1     2
Direct
  0.0618533569999968  0.1225450259999974  0.3452144560000008
  0.0618097259999999  0.3225116429999986  0.3435210880000028
  0.0618111490000004  0.5225588079999994  0.3433519009999983
  0.0618623869999979  0.7225838299999978  0.3449353869999996
  0.0618836209999998  0.9225852490000008  0.3460370000000026
  0.2618441580000024  0.1225479920000012  0.3444553320000026
  0.2618049980000023  0.3225129839999994  0.3435269590000019
  0.2618115539999977  0.5225408670000036  0.3428278570000032
  0.2618021369999965  0.7225642800000003  0.3433206380000016
  0.2618406710000016  0.9225826859999984  0.3443350490000014
  0.4618158339999994  0.1225501369999975  0.3432657119999973
  0.4618484379999970  0.3225772380000009  0.3434283440000030
  0.4618689719999978  0.5225700740000008  0.3435010609999978
  0.4618425970000004  0.7225537899999992  0.3434264360000014
  0.4618283510000012  0.9225682020000008  0.3433318140000026
  0.6618280409999997  0.1225352359999974  0.3433509170000022
  0.6618289950000005  0.3225489559999986  0.3432541789999988
  0.6618671419999984  0.5225784779999998  0.3444274960000016
  0.6618978380000016  0.7226156589999988  0.3448469040000006
  0.6618798379999973  0.9225525860000019  0.3445677460000027
  0.8618345260000027  0.1225278900000006  0.3445853890000024
  0.8618115189999997  0.3225314620000006  0.3433769350000020
  0.8618361349999972  0.5225715640000033  0.3443257209999970
  0.8618983630000017  0.7225903869999968  0.3460011179999967
  0.8618698719999998  0.9225517510000003  0.3462021650000011
  0.1260952350000011  0.0542406739999990  0.2670031789999996
  0.1262330260000013  0.2539525930000011  0.2655545770000032
  0.1263392420000002  0.4546101390000032  0.2645601330000034
  0.1262461840000029  0.6552764770000010  0.2652931809999970
  0.1260968300000016  0.8550058599999986  0.2668465380000029
  0.3260383900000008  0.0545880829999987  0.2655304370000025
  0.3263276520000034  0.2543271779999969  0.2652687129999975
  0.3268198069999997  0.4546495080000028  0.2646203939999978
  0.3268494610000019  0.6551432609999992  0.2645084259999990
  0.3263712529999978  0.8550915719999992  0.2651059929999988
  0.5266857740000006  0.0548081550000035  0.2647221980000012
  0.5266172890000007  0.2549094259999976  0.2647179960000017
  0.5272206659999981  0.4552179570000021  0.2652234139999976
  0.5275270939999999  0.6552692059999998  0.2653582100000023
  0.5273201469999975  0.8550907369999976  0.2652316690000021
  0.7270569209999991  0.0545267609999982  0.2657094899999990
  0.7267502549999989  0.2548402250000024  0.2647319730000035
  0.7269881960000006  0.4555033449999968  0.2655002179999997
  0.7274209859999985  0.6554866430000033  0.2668327989999995
  0.7274730800000029  0.8550593849999970  0.2669805290000014
  0.9266514179999987  0.0541971620000012  0.2671171430000001
  0.9264788629999998  0.2542333009999993  0.2652957439999994
  0.9264616370000027  0.4551435110000028  0.2651332619999991
  0.9266266819999984  0.6555071470000016  0.2668266590000030
  0.9267187709999973  0.8549529309999997  0.2679298819999971
  0.1308912189999987  0.0574849289999975  0.4235757889999974
  0.1306590740000004  0.2576266530000026  0.4222814439999993
  0.1305258570000021  0.4570708870000004  0.4213229719999987
  0.1306608319999967  0.6565733549999990  0.4220417740000002
  0.1308830680000028  0.8568357230000032  0.4234297280000021
  0.3308331670000015  0.0571404769999972  0.4222366810000011
  0.3305694760000009  0.2573199870000025  0.4219732279999988
  0.3300957679999996  0.4570082720000030  0.4213528630000027
  0.3300883770000027  0.6566795709999980  0.4212618170000013
  0.3305297490000001  0.8567230700000010  0.4218264519999977
  0.5302855369999975  0.0569442440000003  0.4214625059999975
  0.5303415059999992  0.2568580510000018  0.4214519559999985
  0.5299062730000017  0.4566661719999985  0.4219422640000019
  0.5295910239999984  0.6566100120000016  0.4220586120000007
  0.5297998790000022  0.8567709920000013  0.4219130870000001
  0.7300229669999965  0.0571592080000016  0.4223933520000003
  0.7302515510000021  0.2568928600000007  0.4214727279999977
  0.7301168440000012  0.4563574789999976  0.4221891760000034
  0.7298429009999978  0.6564417479999989  0.4233783780000024
  0.7296895980000002  0.8567253350000001  0.4236231739999994
  0.9304000139999999  0.0574875849999970  0.4236699340000030
  0.9304738040000018  0.2573789950000034  0.4220033289999989
  0.9304990170000025  0.4566823839999969  0.4218478199999964
  0.9304929970000018  0.6564056870000030  0.4233939650000025
  0.9304593210000007  0.8569506409999974  0.4244551660000013
  0.0893938019999965  0.1830984349999980  0.0572217220000013
  0.0890139119999986  0.4325773420000019  0.0572303200000022
  0.0893105939999970  0.6823533769999983  0.0571937639999973
  0.0899477009999998  0.9329746370000009  0.0570577120000024
  0.3397266859999988  0.1829768870000024  0.0580916110000018
  0.3391812149999964  0.4325541850000008  0.0573063189999985
  0.3391370180000024  0.6826842429999971  0.0572047490000003
  0.3396578130000023  0.9328157899999994  0.0579864380000004
  0.5891378520000004  0.1826504470000003  0.0586289199999968
  0.5887980460000009  0.4320562179999996  0.0581412390000011
  0.5886254910000019  0.6822993159999982  0.0572450829999980
  0.5887519119999993  0.9328237770000030  0.0579532349999994
  0.8388988379999986  0.1829936359999991  0.0579818450000005
  0.8389176729999974  0.4320932330000034  0.0580576099999988
  0.8386838440000020  0.6817112570000035  0.0571183899999994
  0.8386932610000031  0.9329656359999987  0.0570219530000031
  0.1735791119999988  0.1001771239999982  0.0907049850000021
  0.1734148410000032  0.3501217069999996  0.0909815799999976
  0.1734007000000020  0.5995469089999972  0.0909540950000007
  0.1735603509999990  0.8495171670000019  0.0907480870000015
  0.4233531060000004  0.0997506009999967  0.0919927730000012
  0.4231102469999968  0.3498818870000022  0.0919764120000011
  0.4228311780000027  0.5995365380000024  0.0909956989999969
  0.4230605959999991  0.8494040369999993  0.0918201579999973
  0.6731719369999993  0.0997770059999965  0.0919280130000004
  0.6732192639999965  0.3496300879999978  0.0920465889999988
  0.6727402810000029  0.5993525390000016  0.0908351169999975
  0.6726867559999974  0.8495342140000020  0.0906266869999968
  0.9233572480000021  0.1002073209999992  0.0905934199999976
  0.9235535859999970  0.3499098719999978  0.0918637219999994
  0.9233950380000024  0.5993670229999992  0.0908315109999975
  0.9231826660000024  0.8496366139999978  0.0887301489999999
  0.6209489700000006  0.6362222429999989  0.6321601269999988
  0.6234107610000024  0.6410872940000019  0.5736973289999980
  0.6184926629999978  0.6313681600000010  0.6904899479999997
 
  0.00000000E+00  0.00000000E+00  0.00000000E+00
  0.00000000E+00  0.00000000E+00  0.00000000E+00
  0.00000000E+00  0.00000000E+00  0.00000000E+00
  0.00000000E+00  0.00000000E+00  0.00000000E+00
  0.00000000E+00  0.00000000E+00  0.00000000E+00
  0.00000000E+00  0.00000000E+00  0.00000000E+00
  0.00000000E+00  0.00000000E+00  0.00000000E+00
  0.00000000E+00  0.00000000E+00  0.00000000E+00
  0.00000000E+00  0.00000000E+00  0.00000000E+00
  0.00000000E+00  0.00000000E+00  0.00000000E+00
  0.00000000E+00  0.00000000E+00  0.00000000E+00
  0.00000000E+00  0.00000000E+00  0.00000000E+00
  0.00000000E+00  0.00000000E+00  0.00000000E+00
  0.00000000E+00  0.00000000E+00  0.00000000E+00
  0.00000000E+00  0.00000000E+00  0.00000000E+00
  0.00000000E+00  0.00000000E+00  0.00000000E+00
  0.00000000E+00  0.00000000E+00  0.00000000E+00
  0.00000000E+00  0.00000000E+00  0.00000000E+00
  0.00000000E+00  0.00000000E+00  0.00000000E+00
  0.00000000E+00  0.00000000E+00  0.00000000E+00
  0.00000000E+00  0.00000000E+00  0.00000000E+00
  0.00000000E+00  0.00000000E+00  0.00000000E+00
  0.00000000E+00  0.00000000E+00  0.00000000E+00
  0.00000000E+00  0.00000000E+00  0.00000000E+00
  0.00000000E+00  0.00000000E+00  0.00000000E+00
  0.00000000E+00  0.00000000E+00  0.00000000E+00
  0.00000000E+00  0.00000000E+00  0.00000000E+00
  0.00000000E+00  0.00000000E+00  0.00000000E+00
  0.00000000E+00  0.00000000E+00  0.00000000E+00
  0.00000000E+00  0.00000000E+00  0.00000000E+00
  0.00000000E+00  0.00000000E+00  0.00000000E+00
  0.00000000E+00  0.00000000E+00  0.00000000E+00
  0.00000000E+00  0.00000000E+00  0.00000000E+00
  0.00000000E+00  0.00000000E+00  0.00000000E+00
  0.00000000E+00  0.00000000E+00  0.00000000E+00
  0.00000000E+00  0.00000000E+00  0.00000000E+00
  0.00000000E+00  0.00000000E+00  0.00000000E+00
  0.00000000E+00  0.00000000E+00  0.00000000E+00
  0.00000000E+00  0.00000000E+00  0.00000000E+00
  0.00000000E+00  0.00000000E+00  0.00000000E+00
  0.00000000E+00  0.00000000E+00  0.00000000E+00
  0.00000000E+00  0.00000000E+00  0.00000000E+00
  0.00000000E+00  0.00000000E+00  0.00000000E+00
  0.00000000E+00  0.00000000E+00  0.00000000E+00
  0.00000000E+00  0.00000000E+00  0.00000000E+00
  0.00000000E+00  0.00000000E+00  0.00000000E+00
  0.00000000E+00  0.00000000E+00  0.00000000E+00
  0.00000000E+00  0.00000000E+00  0.00000000E+00
  0.00000000E+00  0.00000000E+00  0.00000000E+00
  0.00000000E+00  0.00000000E+00  0.00000000E+00
  0.00000000E+00  0.00000000E+00  0.00000000E+00
  0.00000000E+00  0.00000000E+00  0.00000000E+00
  0.00000000E+00  0.00000000E+00  0.00000000E+00
  0.00000000E+00  0.00000000E+00  0.00000000E+00
  0.00000000E+00  0.00000000E+00  0.00000000E+00
  0.00000000E+00  0.00000000E+00  0.00000000E+00
  0.00000000E+00  0.00000000E+00  0.00000000E+00
  0.00000000E+00  0.00000000E+00  0.00000000E+00
  0.00000000E+00  0.00000000E+00  0.00000000E+00
  0.00000000E+00  0.00000000E+00  0.00000000E+00
  0.00000000E+00  0.00000000E+00  0.00000000E+00
  0.00000000E+00  0.00000000E+00  0.00000000E+00
  0.00000000E+00  0.00000000E+00  0.00000000E+00
  0.00000000E+00  0.00000000E+00  0.00000000E+00
  0.00000000E+00  0.00000000E+00  0.00000000E+00
  0.00000000E+00  0.00000000E+00  0.00000000E+00
  0.00000000E+00  0.00000000E+00  0.00000000E+00
  0.00000000E+00  0.00000000E+00  0.00000000E+00
  0.00000000E+00  0.00000000E+00  0.00000000E+00
  0.00000000E+00  0.00000000E+00  0.00000000E+00
  0.00000000E+00  0.00000000E+00  0.00000000E+00
  0.00000000E+00  0.00000000E+00  0.00000000E+00
  0.00000000E+00  0.00000000E+00  0.00000000E+00
  0.00000000E+00  0.00000000E+00  0.00000000E+00
  0.00000000E+00  0.00000000E+00  0.00000000E+00
  0.00000000E+00  0.00000000E+00  0.00000000E+00
  0.00000000E+00  0.00000000E+00  0.00000000E+00
  0.00000000E+00  0.00000000E+00  0.00000000E+00
  0.00000000E+00  0.00000000E+00  0.00000000E+00
  0.00000000E+00  0.00000000E+00  0.00000000E+00
  0.00000000E+00  0.00000000E+00  0.00000000E+00
  0.00000000E+00  0.00000000E+00  0.00000000E+00
  0.00000000E+00  0.00000000E+00  0.00000000E+00
  0.00000000E+00  0.00000000E+00  0.00000000E+00
  0.00000000E+00  0.00000000E+00  0.00000000E+00
  0.00000000E+00  0.00000000E+00  0.00000000E+00
  0.00000000E+00  0.00000000E+00  0.00000000E+00
  0.00000000E+00  0.00000000E+00  0.00000000E+00
  0.00000000E+00  0.00000000E+00  0.00000000E+00
  0.00000000E+00  0.00000000E+00  0.00000000E+00
  0.00000000E+00  0.00000000E+00  0.00000000E+00
  0.00000000E+00  0.00000000E+00  0.00000000E+00
  0.00000000E+00  0.00000000E+00  0.00000000E+00
  0.00000000E+00  0.00000000E+00  0.00000000E+00
  0.00000000E+00  0.00000000E+00  0.00000000E+00
  0.00000000E+00  0.00000000E+00  0.00000000E+00
  0.00000000E+00  0.00000000E+00  0.00000000E+00
  0.00000000E+00  0.00000000E+00  0.00000000E+00
  0.00000000E+00  0.00000000E+00  0.00000000E+00
  0.00000000E+00  0.00000000E+00  0.00000000E+00
  0.00000000E+00  0.00000000E+00  0.00000000E+00
  0.00000000E+00  0.00000000E+00  0.00000000E+00
  0.00000000E+00  0.00000000E+00  0.00000000E+00
  0.00000000E+00  0.00000000E+00  0.00000000E+00
  0.00000000E+00  0.00000000E+00  0.00000000E+00
  0.00000000E+00  0.00000000E+00  0.00000000E+00
  0.00000000E+00  0.00000000E+00  0.00000000E+00
  0.00000000E+00  0.00000000E+00  0.00000000E+00
  0.00000000E+00  0.00000000E+00  0.00000000E+00
  0.00000000E+00  0.00000000E+00  0.00000000E+00
