Si64                                    
   1.00000000000000     
    10.9374559999999992    0.0000000000000000    0.0000000000000000
     0.0000000000000000   10.9374559999999992    0.0000000000000000
     0.0000000000000000    0.0000000000000000   10.9374559999999992
   Si
    64
Direct
     0.0834663535383675    0.3729309245571089    0.1636242042177201
     0.2865304218971323    0.2877278079966386    0.6774656441658587
     0.1167682893121145    0.9050257437688960    0.0384111764288418
     0.0806666200389403    0.8651530161035653    0.6185602656816017
     0.5795849510648866    0.5515492931796585    0.2381302876656200
     0.6342088633257947    0.3669542248200826    0.7090300912436490
     0.6230663296094018    0.7919394921765185    0.1605850125660734
     0.6048222464357398    0.8263401824777974    0.5368534094294937
     1.0121812230089853    0.0479071458439162    0.1581924484584980
     0.9584889946444376    0.0096347321994639    0.6983245481671124
    -0.0287127979090708    0.5412203545878115    0.2480042707981980
     0.1386754148124023    0.5079982005691099    0.8010495732175681
     0.5241269058421064    0.9495626442793950    0.3180226147136691
     0.5072746418342182    0.9683265598762043    0.7147465422747640
     0.3670795119859471    0.6718074814959470    0.2887070220315441
     0.4959805182095206    0.4714887085332630    0.8620197374341007
     0.1701665862621530    0.1695769319615160    0.2780572326189793
     0.0290775732413943    0.0855730709082455    0.9047828111146003
     0.0722680764304975    0.5173546643615181    0.4821196792008047
     0.1862662554182201    0.6843810422511237    0.9097732316666549
     0.6385934954244707    0.1280438454956652    0.3571135926075050
     0.6455886222029481    0.1214807582562236    0.7729250589983206
     0.8230229554496952    0.6670262400424171    0.4569929302932467
     0.6146984896760650    0.5296500840953016    0.0168394362982050
     0.9050256258463190    0.2746433815041828    0.0493713218981535
     0.0815104808984556    0.2065225363191618    0.5265058140513514
     0.9599965977364224    0.7871930167022819    0.8972571051982691
     1.0488397462328130    0.7138546494080308    0.4411869230914934
     0.4852464045194448    0.1373973690727145    0.9190400631317182
     0.5418218694075444    0.3272210266793189    0.5168177249398984
     0.4497241136578441    0.7303128846545320    0.0860057038634608
     0.5915040395029676    0.6213449801416224    0.4774883372854409
     0.4207358779326185    0.4659563454455866    0.4021869077940226
     0.3566824039769751    0.3229906935070493    0.9087384212004903
     0.2831117521748576    0.8857608527592381    0.2860912674423630
     0.3852639762848608    0.8922067748400272    0.9134505777078792
     0.7498565104552779    0.4272422566137226    0.3533859359849957
     0.9430944707551013    0.4567424330674572    0.9007065389058653
     0.9138429971345147    0.9155671793469123    0.3000039422647127
     0.8156625959129978    0.9316167555356027    0.8729962467995106
     0.2525542985830603    0.1091394000935225    0.8680047654062685
     0.1895480628314886    0.0043765387170312    0.4429986256550021
     0.2794793549589464    0.3698229822254321    0.0929257896862028
     0.2616341103281088    0.4722177887018431    0.5748382716050751
     0.7538761233027022    0.9777763695361031    0.0747249887923440
     0.7854050027578411   -0.0254070206181147    0.4863971082042468
     0.7786998546194027    0.6153378496420605    0.8031980444995318
     0.7503295847857391    0.4983237579317680    0.5401010094259512
     0.4494928026601137    0.1136004429205766    0.1698037690277237
     0.4029643167350893    0.0842886099100964    0.5760177797375453
     0.2728073069874754    0.5836499786209454    0.1111028555714779
     0.3975269077505280    0.5879168028483686    0.6761379952297386
     0.6559209611271311    0.1813126012072167    0.0659510184761190
     0.8919578929600742    0.1801079765124316    0.6127307919556119
     0.8729716039601054    0.5993614553942516    0.0414185591556474
     0.9497138873767996    0.5138764276090261    0.6731463946832711
     0.3572668639468271    0.2863599833304514    0.3025221789372354
     0.2010072473090083    0.0849296633088880    0.6789266020126725
     0.0877328095158715    0.7444064063152868    0.2361277043561691
     0.2863616316608776    0.7867089400313186    0.7250889745686085
     0.5826308691880863    0.3058755146660649    0.2679069916998627
     0.8100168692987960    0.3021017996484789    0.7810857593186660
     0.7797829067407998    0.6670767862297806    0.2517895258815221
     0.8545087344297465    0.8216126607823429    0.6854908602612516
 
 -0.12178659E-01  0.79685428E-02 -0.39389533E-02
  0.17480133E-01  0.15474211E-02  0.10109952E-02
  0.69164985E-02 -0.31654918E-02 -0.42638625E-02
  0.16387881E-02  0.84353661E-02  0.31574241E-02
 -0.35718600E-02 -0.47689901E-02 -0.84243884E-02
 -0.36206638E-02 -0.54477944E-02  0.77035005E-02
 -0.78057596E-02 -0.46643967E-02  0.46250466E-02
 -0.84513235E-02  0.13064589E-01  0.29511137E-02
  0.11136409E-01  0.72214960E-02  0.88554773E-02
 -0.15059550E-01  0.42922428E-02  0.45252114E-03
 -0.32088762E-02  0.65144880E-02 -0.47683774E-02
  0.51606065E-02 -0.10546150E-01  0.45681670E-02
 -0.61243013E-02  0.24648905E-02  0.13135625E-01
 -0.38490021E-02 -0.83961702E-02  0.27078045E-02
 -0.13739875E-01  0.76621098E-02  0.44428959E-04
 -0.30887893E-02  0.11098210E-01  0.15974995E-01
  0.49213316E-02  0.11197572E-01 -0.11951618E-02
 -0.69173336E-02  0.15875611E-02 -0.14573204E-02
  0.23912214E-03 -0.17872203E-01 -0.33265474E-02
 -0.16728935E-02 -0.50437687E-02  0.14316152E-02
  0.78526419E-02  0.26677085E-02 -0.54877206E-02
 -0.54195967E-02 -0.11161860E-01  0.58033366E-02
  0.10838122E-01 -0.15099390E-02 -0.30558347E-02
 -0.68572553E-02  0.93137034E-03  0.45366120E-02
 -0.56836885E-02 -0.10875164E-02 -0.45612108E-02
  0.12973136E-01 -0.13290723E-01  0.10524879E-01
 -0.10660195E-01 -0.62629219E-02 -0.80907969E-02
  0.46461919E-02 -0.11751500E-01 -0.20278590E-01
  0.17205846E-01 -0.65705697E-04  0.11321603E-01
  0.99771884E-02 -0.48164368E-02 -0.57986608E-03
 -0.83619264E-03 -0.83107148E-02  0.88043803E-02
  0.21650287E-01 -0.94924287E-02 -0.51432994E-02
 -0.96942355E-02  0.49354095E-02 -0.65944239E-02
  0.79482409E-02  0.40548981E-02  0.12348541E-01
 -0.12475014E-01  0.82727497E-02  0.16326791E-02
 -0.47704132E-02  0.59073952E-02  0.48029105E-03
 -0.11292744E-01  0.45322990E-02  0.37478251E-02
  0.26600185E-02  0.38737662E-02 -0.12479302E-02
  0.12059060E-02 -0.83514283E-02  0.15359711E-02
  0.63109615E-02  0.18198240E-02 -0.89802511E-02
  0.56129979E-03  0.61840220E-03 -0.12957345E-01
  0.59170125E-02 -0.13103462E-01  0.11990210E-02
 -0.12753138E-02 -0.37440199E-02 -0.13385416E-01
  0.62836511E-02 -0.81203756E-02  0.10058958E-01
 -0.50340313E-02  0.18243084E-02  0.84383338E-02
 -0.24453196E-02 -0.45261920E-02 -0.24314414E-02
  0.31589470E-02  0.75664616E-02 -0.12414408E-01
 -0.96732406E-02 -0.20329312E-02 -0.43537391E-02
  0.49688528E-02  0.51281152E-02 -0.55293205E-02
  0.14079021E-02 -0.11009822E-02 -0.36528542E-02
 -0.98643291E-04  0.88832514E-02  0.33045587E-02
 -0.17919933E-01  0.25479306E-02  0.51788464E-02
 -0.13636564E-01  0.29988304E-02  0.47269792E-03
 -0.12064414E-02  0.69567491E-02  0.57972624E-02
 -0.82630599E-02 -0.66472856E-02 -0.50254807E-02
 -0.30503367E-02 -0.34401304E-02 -0.46813720E-02
  0.67282610E-02 -0.47502728E-02  0.16439641E-02
  0.28526948E-03  0.24298910E-02 -0.44553708E-02
  0.26984070E-03  0.15811253E-02 -0.51067952E-02
  0.15676658E-01  0.20444368E-02 -0.32978164E-02
  0.12280373E-01  0.54052776E-03 -0.33907373E-02
 -0.95596432E-02  0.11860927E-01  0.68283855E-02
  0.11637462E-01  0.54021417E-02  0.95518770E-03
  0.92037904E-02  0.30387833E-02  0.84458433E-03
 
           1
   3.00000000000000     
 -0.12009724E+01 -0.11663745E-01 -0.11186499E-01 -0.11895473E+01
  0.80125908E-01  0.37511659E+00  0.16254380E+00
  0.29132499E+00  0.28815225E+00  0.67774295E+00
  0.11866539E+00  0.90415749E+00  0.37241655E-01
  0.81116118E-01  0.86746673E+00  0.61942631E+00
  0.57860524E+00  0.55024122E+00  0.23581959E+00
  0.63321576E+00  0.36545997E+00  0.71114306E+00
  0.62092531E+00  0.79066011E+00  0.16185360E+00
  0.60250416E+00  0.82992363E+00  0.53766286E+00
  0.15235793E-01  0.49887907E-01  0.16062139E+00
  0.95435836E+00  0.10812038E-01  0.69844867E+00
  0.97040705E+00  0.54300719E+00  0.24669637E+00
  0.14009090E+00  0.50510553E+00  0.80230256E+00
  0.52244709E+00  0.95023873E+00  0.32162554E+00
  0.50621891E+00  0.96602360E+00  0.71548926E+00
  0.36331085E+00  0.67390910E+00  0.28871921E+00
  0.49513330E+00  0.47453280E+00  0.86640147E+00
  0.17151644E+00  0.17264828E+00  0.27772942E+00
  0.27180240E-01  0.86008518E-01  0.90438309E+00
  0.72333664E-01  0.51245255E+00  0.48120725E+00
  0.18580740E+00  0.68299760E+00  0.91016590E+00
  0.64074737E+00  0.12877556E+00  0.35560838E+00
  0.64410210E+00  0.11841921E+00  0.77451684E+00
  0.82599571E+00  0.66661208E+00  0.45615476E+00
  0.61281763E+00  0.52990555E+00  0.18083769E-01
  0.90346667E+00  0.27434509E+00  0.48120242E-01
  0.85068841E-01  0.20287707E+00  0.52939265E+00
  0.95707265E+00  0.78547518E+00  0.89503791E+00
  0.50114135E-01  0.71063137E+00  0.43562477E+00
  0.48996574E+00  0.13737935E+00  0.92214543E+00
  0.54455848E+00  0.32589994E+00  0.51665868E+00
  0.44949476E+00  0.72803337E+00  0.88420629E-01
  0.59744243E+00  0.61874133E+00  0.47607760E+00
  0.41807688E+00  0.46731006E+00  0.40037814E+00
  0.35886250E+00  0.32410290E+00  0.91212546E+00
  0.27969002E+00  0.88802996E+00  0.28653909E+00
  0.38395551E+00  0.89382710E+00  0.91358232E+00
  0.74675906E+00  0.42848541E+00  0.35441392E+00
  0.94382408E+00  0.45780496E+00  0.90036425E+00
  0.91417376E+00  0.91327649E+00  0.30042524E+00
  0.81739361E+00  0.93211591E+00  0.87053308E+00
  0.25270826E+00  0.10930902E+00  0.86445074E+00
  0.19117102E+00  0.78243186E-03  0.44332750E+00
  0.27912955E+00  0.36879605E+00  0.89254347E-01
  0.26335763E+00  0.46999048E+00  0.57759731E+00
  0.75249535E+00  0.97827675E+00  0.77039513E-01
  0.78473428E+00  0.97335150E+00  0.48573020E+00
  0.77956631E+00  0.61741323E+00  0.79979294E+00
  0.74767634E+00  0.49776615E+00  0.53890684E+00
  0.45085569E+00  0.11500702E+00  0.16828715E+00
  0.40335049E+00  0.83986625E-01  0.57501585E+00
  0.27278025E+00  0.58608654E+00  0.11200925E+00
  0.39261171E+00  0.58861567E+00  0.67755848E+00
  0.65218063E+00  0.18213514E+00  0.66080673E-01
  0.89162698E+00  0.18201612E+00  0.61432090E+00
  0.87070516E+00  0.59753819E+00  0.40040136E-01
  0.94887722E+00  0.51293285E+00  0.67186236E+00
  0.35911234E+00  0.28505705E+00  0.30297310E+00
  0.20108549E+00  0.85596150E-01  0.67770455E+00
  0.87806823E-01  0.74484009E+00  0.23472698E+00
  0.29066153E+00  0.78726970E+00  0.72418443E+00
  0.58599921E+00  0.30602377E+00  0.26697696E+00
  0.80739479E+00  0.30535510E+00  0.78295870E+00
  0.78297491E+00  0.66855852E+00  0.25205152E+00
  0.85703321E+00  0.82244616E+00  0.68572252E+00
  0.00000000E+00  0.00000000E+00  0.00000000E+00
  0.00000000E+00  0.00000000E+00  0.00000000E+00
  0.00000000E+00  0.00000000E+00  0.00000000E+00
  0.00000000E+00  0.00000000E+00  0.00000000E+00
  0.00000000E+00  0.00000000E+00  0.00000000E+00
  0.00000000E+00  0.00000000E+00  0.00000000E+00
  0.00000000E+00  0.00000000E+00  0.00000000E+00
  0.00000000E+00  0.00000000E+00  0.00000000E+00
  0.00000000E+00  0.00000000E+00  0.00000000E+00
  0.00000000E+00  0.00000000E+00  0.00000000E+00
  0.00000000E+00  0.00000000E+00  0.00000000E+00
  0.00000000E+00  0.00000000E+00  0.00000000E+00
  0.00000000E+00  0.00000000E+00  0.00000000E+00
  0.00000000E+00  0.00000000E+00  0.00000000E+00
  0.00000000E+00  0.00000000E+00  0.00000000E+00
  0.00000000E+00  0.00000000E+00  0.00000000E+00
  0.00000000E+00  0.00000000E+00  0.00000000E+00
  0.00000000E+00  0.00000000E+00  0.00000000E+00
  0.00000000E+00  0.00000000E+00  0.00000000E+00
  0.00000000E+00  0.00000000E+00  0.00000000E+00
  0.00000000E+00  0.00000000E+00  0.00000000E+00
  0.00000000E+00  0.00000000E+00  0.00000000E+00
  0.00000000E+00  0.00000000E+00  0.00000000E+00
  0.00000000E+00  0.00000000E+00  0.00000000E+00
  0.00000000E+00  0.00000000E+00  0.00000000E+00
  0.00000000E+00  0.00000000E+00  0.00000000E+00
  0.00000000E+00  0.00000000E+00  0.00000000E+00
  0.00000000E+00  0.00000000E+00  0.00000000E+00
  0.00000000E+00  0.00000000E+00  0.00000000E+00
  0.00000000E+00  0.00000000E+00  0.00000000E+00
  0.00000000E+00  0.00000000E+00  0.00000000E+00
  0.00000000E+00  0.00000000E+00  0.00000000E+00
  0.00000000E+00  0.00000000E+00  0.00000000E+00
  0.00000000E+00  0.00000000E+00  0.00000000E+00
  0.00000000E+00  0.00000000E+00  0.00000000E+00
  0.00000000E+00  0.00000000E+00  0.00000000E+00
  0.00000000E+00  0.00000000E+00  0.00000000E+00
  0.00000000E+00  0.00000000E+00  0.00000000E+00
  0.00000000E+00  0.00000000E+00  0.00000000E+00
  0.00000000E+00  0.00000000E+00  0.00000000E+00
  0.00000000E+00  0.00000000E+00  0.00000000E+00
  0.00000000E+00  0.00000000E+00  0.00000000E+00
  0.00000000E+00  0.00000000E+00  0.00000000E+00
  0.00000000E+00  0.00000000E+00  0.00000000E+00
  0.00000000E+00  0.00000000E+00  0.00000000E+00
  0.00000000E+00  0.00000000E+00  0.00000000E+00
  0.00000000E+00  0.00000000E+00  0.00000000E+00
  0.00000000E+00  0.00000000E+00  0.00000000E+00
  0.00000000E+00  0.00000000E+00  0.00000000E+00
  0.00000000E+00  0.00000000E+00  0.00000000E+00
  0.00000000E+00  0.00000000E+00  0.00000000E+00
  0.00000000E+00  0.00000000E+00  0.00000000E+00
  0.00000000E+00  0.00000000E+00  0.00000000E+00
  0.00000000E+00  0.00000000E+00  0.00000000E+00
  0.00000000E+00  0.00000000E+00  0.00000000E+00
  0.00000000E+00  0.00000000E+00  0.00000000E+00
  0.00000000E+00  0.00000000E+00  0.00000000E+00
  0.00000000E+00  0.00000000E+00  0.00000000E+00
  0.00000000E+00  0.00000000E+00  0.00000000E+00
  0.00000000E+00  0.00000000E+00  0.00000000E+00
  0.00000000E+00  0.00000000E+00  0.00000000E+00
  0.00000000E+00  0.00000000E+00  0.00000000E+00
  0.00000000E+00  0.00000000E+00  0.00000000E+00
  0.00000000E+00  0.00000000E+00  0.00000000E+00
  0.00000000E+00  0.00000000E+00  0.00000000E+00
  0.00000000E+00  0.00000000E+00  0.00000000E+00
  0.00000000E+00  0.00000000E+00  0.00000000E+00
  0.00000000E+00  0.00000000E+00  0.00000000E+00
  0.00000000E+00  0.00000000E+00  0.00000000E+00
  0.00000000E+00  0.00000000E+00  0.00000000E+00
  0.00000000E+00  0.00000000E+00  0.00000000E+00
  0.00000000E+00  0.00000000E+00  0.00000000E+00
  0.00000000E+00  0.00000000E+00  0.00000000E+00
  0.00000000E+00  0.00000000E+00  0.00000000E+00
  0.00000000E+00  0.00000000E+00  0.00000000E+00
  0.00000000E+00  0.00000000E+00  0.00000000E+00
  0.00000000E+00  0.00000000E+00  0.00000000E+00
  0.00000000E+00  0.00000000E+00  0.00000000E+00
  0.00000000E+00  0.00000000E+00  0.00000000E+00
  0.00000000E+00  0.00000000E+00  0.00000000E+00
  0.00000000E+00  0.00000000E+00  0.00000000E+00
  0.00000000E+00  0.00000000E+00  0.00000000E+00
  0.00000000E+00  0.00000000E+00  0.00000000E+00
  0.00000000E+00  0.00000000E+00  0.00000000E+00
  0.00000000E+00  0.00000000E+00  0.00000000E+00
  0.00000000E+00  0.00000000E+00  0.00000000E+00
  0.00000000E+00  0.00000000E+00  0.00000000E+00
  0.00000000E+00  0.00000000E+00  0.00000000E+00
  0.00000000E+00  0.00000000E+00  0.00000000E+00
  0.00000000E+00  0.00000000E+00  0.00000000E+00
  0.00000000E+00  0.00000000E+00  0.00000000E+00
  0.00000000E+00  0.00000000E+00  0.00000000E+00
  0.00000000E+00  0.00000000E+00  0.00000000E+00
  0.00000000E+00  0.00000000E+00  0.00000000E+00
  0.00000000E+00  0.00000000E+00  0.00000000E+00
  0.00000000E+00  0.00000000E+00  0.00000000E+00
  0.00000000E+00  0.00000000E+00  0.00000000E+00
  0.00000000E+00  0.00000000E+00  0.00000000E+00
  0.00000000E+00  0.00000000E+00  0.00000000E+00
  0.00000000E+00  0.00000000E+00  0.00000000E+00
  0.00000000E+00  0.00000000E+00  0.00000000E+00
  0.00000000E+00  0.00000000E+00  0.00000000E+00
  0.00000000E+00  0.00000000E+00  0.00000000E+00
  0.00000000E+00  0.00000000E+00  0.00000000E+00
  0.00000000E+00  0.00000000E+00  0.00000000E+00
  0.00000000E+00  0.00000000E+00  0.00000000E+00
  0.00000000E+00  0.00000000E+00  0.00000000E+00
  0.00000000E+00  0.00000000E+00  0.00000000E+00
  0.00000000E+00  0.00000000E+00  0.00000000E+00
  0.00000000E+00  0.00000000E+00  0.00000000E+00
  0.00000000E+00  0.00000000E+00  0.00000000E+00
  0.00000000E+00  0.00000000E+00  0.00000000E+00
  0.00000000E+00  0.00000000E+00  0.00000000E+00
  0.00000000E+00  0.00000000E+00  0.00000000E+00
  0.00000000E+00  0.00000000E+00  0.00000000E+00
  0.00000000E+00  0.00000000E+00  0.00000000E+00
  0.00000000E+00  0.00000000E+00  0.00000000E+00
  0.00000000E+00  0.00000000E+00  0.00000000E+00
  0.00000000E+00  0.00000000E+00  0.00000000E+00
  0.00000000E+00  0.00000000E+00  0.00000000E+00
  0.00000000E+00  0.00000000E+00  0.00000000E+00
  0.00000000E+00  0.00000000E+00  0.00000000E+00
  0.00000000E+00  0.00000000E+00  0.00000000E+00
  0.00000000E+00  0.00000000E+00  0.00000000E+00
  0.00000000E+00  0.00000000E+00  0.00000000E+00
  0.00000000E+00  0.00000000E+00  0.00000000E+00
  0.00000000E+00  0.00000000E+00  0.00000000E+00
  0.00000000E+00  0.00000000E+00  0.00000000E+00
