Si64                                    
   1.00000000000000     
    10.9374559999999992    0.0000000000000000    0.0000000000000000
     0.0000000000000000   10.9374559999999992    0.0000000000000000
     0.0000000000000000    0.0000000000000000   10.9374559999999992
   Si
    64
Direct
  0.0884122650046490  0.3270156326378417  0.1736505382421814
  0.1566955200084217  0.3453583556191027  0.6420065089492452
  0.1227629896024095  0.9068717021822091  0.0972648779388043
  0.1226522769988106  0.8809007833479529  0.6334238722266959
  0.6200180636946139  0.4987085526372492  0.2338488832010892
  0.6539055821210428  0.3272589899341243  0.6573527567755891
  0.6447321012971774  0.8157265736846083  0.1377718241666075
  0.6444283772414973  0.8744777510061614  0.5792440197963021
 -0.0235876162447640  0.0386031146554957  0.1895103955087199
 -0.0183342351026881  0.0269241950809618  0.7388083439310483
  0.0147219235714441  0.4825105694933961  0.2926923259281320
  0.1093376849492344  0.4738036659936390  0.8022133165076762
  0.5074990470988155 -0.0620207772881743  0.2855033790222842
  0.5584989872135804  0.0007453892802960  0.7048520589987353
  0.4395704515759853  0.6063068778853835  0.2833985848402235
  0.4976312784669857  0.4345726225839910  0.7980544611972108
  0.1170700603508791  0.1270538742329672  0.3131555468312924
  0.0301970902882856  0.0933198759716129  0.9412273596919416
  0.0698290663876445  0.5681210369460886  0.4873416699379345
  0.1517645583676528  0.6560064695803963  0.9204828845091002
  0.5624085031256348  0.0981199076767443  0.3986532035242257
  0.6784149503489000  0.1461999050545272  0.8056931722187879
  0.7402114672298926  0.6948673193175292  0.4327068986851282
  0.6299954827461594  0.5630078313839217  1.0146245261114608
 -0.0488385741591179  0.2694313380845236  0.0375669016218063
  0.0442981621268978  0.2886372778708284  0.4461744699190917
 -0.0469946886038712  0.7886141013397897 -0.0475906637161327
 -0.0164988265371824  0.7823022615766945  0.4595347339268085
  0.4711195090180312  0.1244120850803758 -0.1016693628167118
  0.5267247942669063  0.2608499718697633  0.5203979310305102
  0.4649548099513962  0.7800546683219931  0.0194770972357676
  0.4725665493745787  0.7518536573024137  0.4857810594363217
  0.3951071492311899  0.3985542688242734  0.3938602420784584
  0.3275675177401016  0.3002815180159262  0.8568308222716502
  0.3035621684264630  0.8153431672915107  0.2671070196517354
  0.3861506604799382  0.9403307495857870  0.8305747659747484
  0.8121505059008525  0.4216629108673181  0.3334871696711779
  0.9314757442472759  0.4047954878242046  0.8862554137303624
  0.8645557860644485  0.8860062774686731  0.2913354184628085
  0.8342204942300399  0.9063938976985898  0.8271065871715196
  0.2548237220731238  0.0391600243150153 -0.0060011318664706
  0.2235737066721568  0.0066005966574847  0.4657669395191673
  0.2722511038213415  0.4147056956007804  0.0325457156173324
  0.2712576316047652  0.5122368811307643  0.5785155076387282
  0.7660238084286368 -0.0072039504860320  0.0489697480040874
  0.7584869555452394  0.0360539876992204  0.4229322374365250
  0.8375881726407171  0.6079252485169471 -0.1074371119811564
  0.7924651676959711  0.4884830799265052  0.5186721365597021
  0.4792109414605423  0.1310906711412538  0.1834862713412938
  0.3598332092864311  0.1135073263571699  0.5740345067243094
  0.2928107486322241  0.6573562469094013  0.1173597239710458
  0.4114691396046672  0.6025614042017248  0.6899698334261943
  0.7465101295534231  0.2267712976331043  0.0840188387278060
  0.9454397515148174  0.1400400398836375  0.5718084789837456
  0.9281733937705655  0.6260739121117168  0.1211954494269185
  0.9327118205605377  0.5862231886723370  0.6783304739690439
  0.3111233433311294  0.2294601322483154  0.2864947327534821
  0.1770109958804429  0.1287629169606697  0.6788151315712396
  0.1203503741121596  0.7497837593131993  0.2325552175770395
  0.2760906956355750  0.7644377647148360  0.7823799400297161
  0.5968910477128486  0.2711100965081311  0.2601059207196711
  0.8827962514248557  0.2428896087846563  0.7539033351062576
  0.7594060565300381  0.6678693616502112  0.2348027384012320
  0.7627441944075757  0.7201168516282580  0.7270643519527493
 
 -0.15299595E-01  0.42048068E-02  0.11217434E-01
  0.16365637E-01 -0.76587253E-02  0.40533645E-02
  0.10045262E-01  0.73051058E-02 -0.17877328E-01
  0.35942103E-03 -0.48788581E-02  0.89165170E-02
 -0.11574220E-01 -0.72579935E-03  0.12315747E-01
  0.34231318E-02  0.14167828E-02 -0.47120095E-03
  0.10211030E-01 -0.45159095E-02  0.61744975E-02
  0.26864481E-02  0.69078849E-02 -0.18399792E-02
 -0.45784219E-02  0.12759007E-01 -0.12344851E-01
 -0.33057947E-02 -0.22459821E-02  0.43493558E-02
 -0.27007592E-02 -0.12976110E-02 -0.15705000E-02
  0.55447770E-02  0.17338743E-01 -0.48971740E-02
  0.20128144E-02 -0.41784364E-02  0.13674236E-02
  0.22434547E-02 -0.11990990E-01 -0.81890840E-03
 -0.11357118E-01  0.19117646E-01 -0.88534876E-03
 -0.50418822E-02  0.36069983E-02 -0.82292635E-03
 -0.47010096E-02  0.12655221E-02 -0.13798825E-01
 -0.81972775E-02  0.16853994E-02 -0.35364542E-02
 -0.78112545E-02 -0.98104743E-02 -0.47470834E-02
  0.88555563E-02  0.58198839E-02  0.37171254E-02
  0.95772505E-02  0.59284079E-02  0.43170451E-02
 -0.35179342E-02  0.32209236E-02 -0.13938768E-01
  0.12257604E-01  0.80053612E-02 -0.85974576E-02
  0.11013121E-01 -0.38280804E-02 -0.18080010E-02
  0.76345275E-03 -0.10795724E-01 -0.17427235E-02
  0.55501741E-02 -0.60800542E-02  0.25640582E-02
  0.39378821E-02 -0.27608331E-02 -0.50721752E-02
 -0.72089067E-02 -0.26440723E-02 -0.59197119E-02
 -0.21247157E-02 -0.97571398E-02 -0.72841293E-02
 -0.20064985E-02 -0.97048916E-02  0.30140612E-02
 -0.62319237E-02 -0.84700648E-02  0.64235117E-02
  0.75145043E-04 -0.23738590E-01 -0.32187420E-02
  0.52958905E-02  0.15961919E-01  0.26872630E-02
 -0.60204797E-02  0.18711138E-02  0.33591033E-02
  0.10935892E-01  0.86807154E-03  0.12744997E-02
 -0.64734640E-02 -0.10483558E-01  0.21914256E-02
  0.15074124E-03  0.50803609E-02  0.10885706E-01
 -0.53497134E-03  0.11840858E-04  0.11748716E-01
  0.59306845E-02  0.93697421E-02  0.78165557E-02
  0.24115366E-02  0.12096671E-01 -0.10152273E-03
 -0.86724323E-02  0.41833173E-02 -0.70693175E-02
 -0.10167947E-02  0.14902881E-01  0.36955302E-02
  0.12723483E-01 -0.66252980E-02  0.71215087E-02
  0.68297963E-02  0.91606288E-04  0.58139328E-02
  0.67223546E-02  0.18373147E-02  0.13972346E-01
  0.31864806E-02 -0.10834842E-01  0.74747067E-02
 -0.99506355E-02 -0.21756313E-02 -0.12947958E-01
  0.18903884E-02 -0.76627419E-02 -0.74760613E-02
 -0.44901442E-02 -0.27164187E-02  0.53257563E-02
 -0.48808776E-03  0.57717771E-02 -0.90648203E-02
 -0.79177062E-02 -0.58417988E-02 -0.36075581E-02
 -0.10456922E-01  0.90867352E-02  0.48886394E-02
  0.18902772E-03 -0.61079259E-02 -0.43050853E-02
 -0.17612421E-01 -0.41441803E-02  0.73177163E-02
 -0.18044653E-01  0.50883874E-02 -0.98722238E-02
  0.25669670E-02 -0.15070077E-01  0.44239101E-02
  0.10008193E-01  0.89651187E-02  0.26698226E-02
  0.57692280E-02 -0.15191451E-01 -0.31532964E-02
 -0.54356189E-02 -0.19777113E-02  0.74857851E-02
  0.13737605E-01 -0.12513260E-01 -0.11736082E-01
 -0.14815418E-01  0.14276008E-01  0.43639841E-02
 -0.13330854E-02  0.40938387E-02  0.35467776E-03
  0.75109728E-02 -0.14490002E-02  0.59213873E-02
  0.81387428E-02  0.15736955E-01 -0.86968997E-02
 
           1
   3.00000000000000     
 -0.12246449E+01 -0.31444762E-01 -0.33928700E-01 -0.11919582E+01
  0.84215788E-01  0.32816896E+00  0.17672733E+00
  0.16118440E+00  0.34325767E+00  0.64311829E+00
  0.12551827E+00  0.90887540E+00  0.92361363E-01
  0.12275086E+00  0.87956258E+00  0.63586956E+00
  0.61684341E+00  0.49850948E+00  0.23722693E+00
  0.65484450E+00  0.32764759E+00  0.65722351E+00
  0.64753285E+00  0.81448792E+00  0.13946541E+00
  0.64516523E+00  0.87637249E+00  0.57873934E+00
  0.97515658E+00  0.42102742E-01  0.18612437E+00
  0.98075903E+00  0.26308152E-01  0.74000131E+00
  0.13981141E-01  0.48215465E+00  0.29226156E+00
  0.11085854E+00  0.47855945E+00  0.80087009E+00
  0.50805114E+00  0.93683313E+00  0.28587845E+00
  0.55911434E+00  0.99745642E+00  0.70462744E+00
  0.43645534E+00  0.61155060E+00  0.28315575E+00
  0.49624836E+00  0.43556197E+00  0.79782874E+00
  0.11578064E+00  0.12740099E+00  0.30937071E+00
  0.27948685E-01  0.93782159E-01  0.94025736E+00
  0.67686542E-01  0.56543015E+00  0.48603961E+00
  0.15419352E+00  0.65760279E+00  0.92150244E+00
  0.56503542E+00  0.99745992E-01  0.39983731E+00
  0.67745003E+00  0.14708336E+00  0.80186995E+00
  0.74357357E+00  0.69706308E+00  0.43034873E+00
  0.63301624E+00  0.56195784E+00  0.14128615E-01
  0.95137083E+00  0.26647021E+00  0.37088896E-01
  0.45820502E-01  0.28696960E+00  0.44687776E+00
  0.95408542E+00  0.78785684E+00  0.95101811E+00
  0.98152387E+00  0.78157703E+00  0.45791103E+00
  0.47053673E+00  0.12173583E+00  0.89633270E+00
  0.52617444E+00  0.25818805E+00  0.52122465E+00
  0.46324548E+00  0.77773144E+00  0.21238982E-01
  0.47258716E+00  0.74534247E+00  0.48489820E+00
  0.39655974E+00  0.40293241E+00  0.39459732E+00
  0.32591618E+00  0.30079474E+00  0.85775218E+00
  0.30656174E+00  0.81558127E+00  0.26745660E+00
  0.38437507E+00  0.93745525E+00  0.83117585E+00
  0.81219185E+00  0.42305639E+00  0.33647298E+00
  0.93132901E+00  0.40479874E+00  0.88947793E+00
  0.86618249E+00  0.88857627E+00  0.29347940E+00
  0.83488195E+00  0.90971186E+00  0.82707874E+00
  0.25244499E+00  0.40307453E-01  0.99205985E+00
  0.22329481E+00  0.10688260E-01  0.46678057E+00
  0.27574099E+00  0.41288846E+00  0.34499052E-01
  0.27313095E+00  0.51226201E+00  0.58011019E+00
  0.76786766E+00  0.99330000E+00  0.52802178E-01
  0.75936097E+00  0.33082133E-01  0.42498245E+00
  0.83485884E+00  0.60732850E+00  0.88901143E+00
  0.79298368E+00  0.48638129E+00  0.51662155E+00
  0.47797935E+00  0.13034559E+00  0.18494706E+00
  0.35969933E+00  0.11509045E+00  0.57154815E+00
  0.29063903E+00  0.65575392E+00  0.11637022E+00
  0.40860094E+00  0.60505378E+00  0.69131072E+00
  0.74656198E+00  0.22509597E+00  0.82838011E-01
  0.94060890E+00  0.13890335E+00  0.57381563E+00
  0.92322398E+00  0.62746959E+00  0.11848763E+00
  0.93341591E+00  0.58208967E+00  0.67954389E+00
  0.31386846E+00  0.23191915E+00  0.28722703E+00
  0.17859342E+00  0.12459610E+00  0.67795022E+00
  0.11885946E+00  0.74924130E+00  0.23460847E+00
  0.27985874E+00  0.76100554E+00  0.77916089E+00
  0.59282737E+00  0.27502582E+00  0.26130290E+00
  0.88243060E+00  0.24401249E+00  0.75400062E+00
  0.76146622E+00  0.66747192E+00  0.23642690E+00
  0.76497654E+00  0.72443329E+00  0.72467891E+00
  0.00000000E+00  0.00000000E+00  0.00000000E+00
  0.00000000E+00  0.00000000E+00  0.00000000E+00
  0.00000000E+00  0.00000000E+00  0.00000000E+00
  0.00000000E+00  0.00000000E+00  0.00000000E+00
  0.00000000E+00  0.00000000E+00  0.00000000E+00
  0.00000000E+00  0.00000000E+00  0.00000000E+00
  0.00000000E+00  0.00000000E+00  0.00000000E+00
  0.00000000E+00  0.00000000E+00  0.00000000E+00
  0.00000000E+00  0.00000000E+00  0.00000000E+00
  0.00000000E+00  0.00000000E+00  0.00000000E+00
  0.00000000E+00  0.00000000E+00  0.00000000E+00
  0.00000000E+00  0.00000000E+00  0.00000000E+00
  0.00000000E+00  0.00000000E+00  0.00000000E+00
  0.00000000E+00  0.00000000E+00  0.00000000E+00
  0.00000000E+00  0.00000000E+00  0.00000000E+00
  0.00000000E+00  0.00000000E+00  0.00000000E+00
  0.00000000E+00  0.00000000E+00  0.00000000E+00
  0.00000000E+00  0.00000000E+00  0.00000000E+00
  0.00000000E+00  0.00000000E+00  0.00000000E+00
  0.00000000E+00  0.00000000E+00  0.00000000E+00
  0.00000000E+00  0.00000000E+00  0.00000000E+00
  0.00000000E+00  0.00000000E+00  0.00000000E+00
  0.00000000E+00  0.00000000E+00  0.00000000E+00
  0.00000000E+00  0.00000000E+00  0.00000000E+00
  0.00000000E+00  0.00000000E+00  0.00000000E+00
  0.00000000E+00  0.00000000E+00  0.00000000E+00
  0.00000000E+00  0.00000000E+00  0.00000000E+00
  0.00000000E+00  0.00000000E+00  0.00000000E+00
  0.00000000E+00  0.00000000E+00  0.00000000E+00
  0.00000000E+00  0.00000000E+00  0.00000000E+00
  0.00000000E+00  0.00000000E+00  0.00000000E+00
  0.00000000E+00  0.00000000E+00  0.00000000E+00
  0.00000000E+00  0.00000000E+00  0.00000000E+00
  0.00000000E+00  0.00000000E+00  0.00000000E+00
  0.00000000E+00  0.00000000E+00  0.00000000E+00
  0.00000000E+00  0.00000000E+00  0.00000000E+00
  0.00000000E+00  0.00000000E+00  0.00000000E+00
  0.00000000E+00  0.00000000E+00  0.00000000E+00
  0.00000000E+00  0.00000000E+00  0.00000000E+00
  0.00000000E+00  0.00000000E+00  0.00000000E+00
  0.00000000E+00  0.00000000E+00  0.00000000E+00
  0.00000000E+00  0.00000000E+00  0.00000000E+00
  0.00000000E+00  0.00000000E+00  0.00000000E+00
  0.00000000E+00  0.00000000E+00  0.00000000E+00
  0.00000000E+00  0.00000000E+00  0.00000000E+00
  0.00000000E+00  0.00000000E+00  0.00000000E+00
  0.00000000E+00  0.00000000E+00  0.00000000E+00
  0.00000000E+00  0.00000000E+00  0.00000000E+00
  0.00000000E+00  0.00000000E+00  0.00000000E+00
  0.00000000E+00  0.00000000E+00  0.00000000E+00
  0.00000000E+00  0.00000000E+00  0.00000000E+00
  0.00000000E+00  0.00000000E+00  0.00000000E+00
  0.00000000E+00  0.00000000E+00  0.00000000E+00
  0.00000000E+00  0.00000000E+00  0.00000000E+00
  0.00000000E+00  0.00000000E+00  0.00000000E+00
  0.00000000E+00  0.00000000E+00  0.00000000E+00
  0.00000000E+00  0.00000000E+00  0.00000000E+00
  0.00000000E+00  0.00000000E+00  0.00000000E+00
  0.00000000E+00  0.00000000E+00  0.00000000E+00
  0.00000000E+00  0.00000000E+00  0.00000000E+00
  0.00000000E+00  0.00000000E+00  0.00000000E+00
  0.00000000E+00  0.00000000E+00  0.00000000E+00
  0.00000000E+00  0.00000000E+00  0.00000000E+00
  0.00000000E+00  0.00000000E+00  0.00000000E+00
  0.00000000E+00  0.00000000E+00  0.00000000E+00
  0.00000000E+00  0.00000000E+00  0.00000000E+00
  0.00000000E+00  0.00000000E+00  0.00000000E+00
  0.00000000E+00  0.00000000E+00  0.00000000E+00
  0.00000000E+00  0.00000000E+00  0.00000000E+00
  0.00000000E+00  0.00000000E+00  0.00000000E+00
  0.00000000E+00  0.00000000E+00  0.00000000E+00
  0.00000000E+00  0.00000000E+00  0.00000000E+00
  0.00000000E+00  0.00000000E+00  0.00000000E+00
  0.00000000E+00  0.00000000E+00  0.00000000E+00
  0.00000000E+00  0.00000000E+00  0.00000000E+00
  0.00000000E+00  0.00000000E+00  0.00000000E+00
  0.00000000E+00  0.00000000E+00  0.00000000E+00
  0.00000000E+00  0.00000000E+00  0.00000000E+00
  0.00000000E+00  0.00000000E+00  0.00000000E+00
  0.00000000E+00  0.00000000E+00  0.00000000E+00
  0.00000000E+00  0.00000000E+00  0.00000000E+00
  0.00000000E+00  0.00000000E+00  0.00000000E+00
  0.00000000E+00  0.00000000E+00  0.00000000E+00
  0.00000000E+00  0.00000000E+00  0.00000000E+00
  0.00000000E+00  0.00000000E+00  0.00000000E+00
  0.00000000E+00  0.00000000E+00  0.00000000E+00
  0.00000000E+00  0.00000000E+00  0.00000000E+00
  0.00000000E+00  0.00000000E+00  0.00000000E+00
  0.00000000E+00  0.00000000E+00  0.00000000E+00
  0.00000000E+00  0.00000000E+00  0.00000000E+00
  0.00000000E+00  0.00000000E+00  0.00000000E+00
  0.00000000E+00  0.00000000E+00  0.00000000E+00
  0.00000000E+00  0.00000000E+00  0.00000000E+00
  0.00000000E+00  0.00000000E+00  0.00000000E+00
  0.00000000E+00  0.00000000E+00  0.00000000E+00
  0.00000000E+00  0.00000000E+00  0.00000000E+00
  0.00000000E+00  0.00000000E+00  0.00000000E+00
  0.00000000E+00  0.00000000E+00  0.00000000E+00
  0.00000000E+00  0.00000000E+00  0.00000000E+00
  0.00000000E+00  0.00000000E+00  0.00000000E+00
  0.00000000E+00  0.00000000E+00  0.00000000E+00
  0.00000000E+00  0.00000000E+00  0.00000000E+00
  0.00000000E+00  0.00000000E+00  0.00000000E+00
  0.00000000E+00  0.00000000E+00  0.00000000E+00
  0.00000000E+00  0.00000000E+00  0.00000000E+00
  0.00000000E+00  0.00000000E+00  0.00000000E+00
  0.00000000E+00  0.00000000E+00  0.00000000E+00
  0.00000000E+00  0.00000000E+00  0.00000000E+00
  0.00000000E+00  0.00000000E+00  0.00000000E+00
  0.00000000E+00  0.00000000E+00  0.00000000E+00
  0.00000000E+00  0.00000000E+00  0.00000000E+00
  0.00000000E+00  0.00000000E+00  0.00000000E+00
  0.00000000E+00  0.00000000E+00  0.00000000E+00
  0.00000000E+00  0.00000000E+00  0.00000000E+00
  0.00000000E+00  0.00000000E+00  0.00000000E+00
  0.00000000E+00  0.00000000E+00  0.00000000E+00
  0.00000000E+00  0.00000000E+00  0.00000000E+00
  0.00000000E+00  0.00000000E+00  0.00000000E+00
  0.00000000E+00  0.00000000E+00  0.00000000E+00
  0.00000000E+00  0.00000000E+00  0.00000000E+00
  0.00000000E+00  0.00000000E+00  0.00000000E+00
  0.00000000E+00  0.00000000E+00  0.00000000E+00
  0.00000000E+00  0.00000000E+00  0.00000000E+00
  0.00000000E+00  0.00000000E+00  0.00000000E+00
  0.00000000E+00  0.00000000E+00  0.00000000E+00
  0.00000000E+00  0.00000000E+00  0.00000000E+00
  0.00000000E+00  0.00000000E+00  0.00000000E+00
  0.00000000E+00  0.00000000E+00  0.00000000E+00