GRAPHENE-2D-2atoms
ISMEAR=1
SIGMA=0.2
ISIF=3
PREC=Accurate
ISPIN=2
MAGMOM=2*1 
NSW=50
IBRION=2
LWAVE=.FALSE.
LREAL=.FALSE.
EDIFF=1E-5
EDIFFG=-0.01
ALGO=Fast

