C
1.0
  1.230600000000  -2.131461723794   0.000000000000
  1.230600000000   2.131461723794   0.000000000000
  0.000000000000   0.000000000000   6.709000000000
  C
  2
Selective dynamics
Direct
  0.333333333333   0.166666666667   0.500000000000  T T T
  0.666666666667   0.833333333333   0.500000000000  T T T
