"Mo24 Au1 S50 Si32 C1 O1"               
   1.00000000000000     
    15.9071998596000004    0.0000000000000000    0.0000000000000000
    -7.9844428276999997   13.7329749189000001    0.0000000000000000
     0.2185384796000000   -0.8083967031000000   20.1461028782999989
   Mo   Au   S    Si   C    O 
    24     1    50    32     1     1
Direct
  0.0716400000000021  0.1262699959999978  0.3179000020000018
  0.0718600000000009  0.3246699870000000  0.3334699870000009
  0.0634199980000005  0.5157799719999971  0.3317799869999973
  0.0721499989999970  0.7231699820000017  0.3109300140000002
  0.0715700020000014  0.9240099789999974  0.3086900119999996
  0.2742399870000014  0.1264899970000002  0.3177399930000036
  0.2728799879999997  0.3266699910000028  0.3299700020000031
  0.2721799910000016  0.5257400269999977  0.3380199970000035
  0.2701500060000015  0.7223700280000003  0.3276300129999967
  0.2737500069999967  0.9238799809999989  0.3163599969999993
  0.4734799860000010  0.1247399969999989  0.3301100130000023
  0.4731799959999989  0.3260099889999992  0.3324199910000019
  0.4713599979999969  0.5260199900000018  0.3373799920000025
  0.4708000119999980  0.7246800070000035  0.3377400039999969
  0.4723699990000014  0.9248700139999997  0.3322800099999981
  0.6718900199999993  0.1252499969999974  0.3356600110000016
  0.6727799769999976  0.3280099930000020  0.3353199960000026
  0.6690899729999984  0.5182200069999965  0.3294599950000006
  0.6697499750000020  0.7232499719999979  0.3270300029999973
  0.6701200010000008  0.9248999949999970  0.3321900070000012
  0.8696900010000022  0.1236499990000013  0.3303500119999967
  0.8757399919999997  0.3277699949999970  0.3364799920000010
  0.8691700099999977  0.7240599989999978  0.3104299900000029
  0.8687800169999988  0.9239699840000029  0.3161399959999969
  0.8647400139999988  0.4993700090000033  0.3549000020000008
  0.1414099930000035  0.0615999999999985  0.2345400009999992
  0.1418299970000021  0.2634899910000001  0.2429800029999996
  0.1408199970000013  0.4546299869999970  0.2590999900000028
  0.1410499959999996  0.6455000039999987  0.2407599989999980
  0.1430899949999969  0.8546500209999977  0.2322999980000020
  0.3435899910000018  0.0575499979999989  0.2391200069999968
  0.3424800040000022  0.2635299860000018  0.2429099980000018
  0.3390600090000007  0.4588400129999997  0.2588599919999979
  0.3391799930000019  0.6518599990000027  0.2576499879999972
  0.3429499860000007  0.8501899839999965  0.2409600020000013
  0.5394600030000021  0.0532700010000013  0.2553899879999975
  0.5373100039999983  0.2541800139999992  0.2564300000000017
  0.5330299740000015  0.4550699890000018  0.2571899889999969
  0.5317800050000017  0.6522700189999995  0.2572300140000010
  0.5349699850000036  0.8506000040000004  0.2573300000000032
  0.7342699769999967  0.0532299990000027  0.2553600070000002
  0.7386400099999975  0.2549700140000013  0.2608099879999983
  0.7239599819999967  0.4435600039999983  0.2409600020000013
  0.7248200180000026  0.6471099850000002  0.2396200000000022
  0.7275000209999973  0.8507199880000016  0.2406799939999971
  0.9351800080000032  0.0575199979999965  0.2390400020000030
  0.9379799960000028  0.2535699900000026  0.2572700079999990
  0.9403799769999992  0.4416300059999969  0.2394499930000009
  0.9362800119999974  0.6528800130000008  0.2317399980000019
  0.9326599839999972  0.8551300170000005  0.2320500020000011
  0.1378200050000018  0.0580900009999965  0.3893199859999967
  0.1384399980000026  0.2558600010000021  0.4031499920000030
  0.1400399950000022  0.4606400130000026  0.4123899940000015
  0.1339599940000014  0.6625700000000023  0.3977800010000010
  0.1372399930000014  0.8618500230000024  0.3872599899999969
  0.3331399859999991  0.0581699979999968  0.3968499899999998
  0.3357700110000010  0.2565999930000018  0.4025599960000008
  0.3378500040000034  0.4588199849999981  0.4139600099999967
  0.3362199959999970  0.6659600139999995  0.4130600089999987
  0.3338600100000022  0.8625800009999978  0.4010300039999990
  0.5364099740000015  0.0613699999999966  0.4110299940000033
  0.5350099799999981  0.2584199909999967  0.4100700019999977
  0.5383399720000028  0.4618600009999980  0.4113799929999971
  0.5448300239999995  0.6660000090000011  0.4125899969999978
  0.5401200060000022  0.8649700280000019  0.4122000039999989
  0.7406799789999994  0.0609800000000007  0.4111399949999992
  0.7399100069999989  0.2630200090000017  0.4129199979999996
  0.7250000240000034  0.4587500100000028  0.4175100029999967
  0.7441999910000021  0.6636599899999993  0.3970000150000033
  0.7446299790000026  0.8628500100000025  0.4007700089999986
  0.9419999719999979  0.0575899999999976  0.3969500059999973
  0.9400699729999999  0.2561500070000022  0.4108099939999974
  0.9510499840000008  0.4541000130000015  0.4235599940000014
  0.9416400189999976  0.6686599849999979  0.3882299959999997
  0.9411799909999985  0.8620700239999977  0.3870599870000007
  0.0734399999999980  0.1704400030000031  0.0907600000000031
  0.0817599969999989  0.4289900059999994  0.1079899969999971
  0.0783699970000029  0.6790900230000005  0.0851999969999966
  0.0741899980000014  0.9227399829999996  0.0797400029999977
  0.3222999870000010  0.1704999950000001  0.0908299979999967
  0.3200399879999978  0.4153299930000003  0.1021699980000008
  0.3234499989999975  0.6803299780000032  0.0954800020000022
  0.3254899980000019  0.9268500209999999  0.0889300030000015
  0.5776500110000029  0.1856900009999976  0.1130700040000008
  0.5721700189999979  0.4289599960000032  0.1091300029999971
  0.5814300179999989  0.6804100279999972  0.0948500040000013
  0.5762500169999996  0.9282500150000033  0.1100300029999985
  0.8323799969999968  0.1850499959999965  0.1121700030000028
  0.8296200039999988  0.4352200029999977  0.0967599969999995
  0.8260999920000032  0.6792899969999979  0.0846600010000031
  0.8264600039999976  0.9267799850000031  0.0886199999999988
  0.1549099980000008  0.0857300010000017  0.1252399979999979
  0.1552499980000022  0.3324700000000007  0.1405600009999972
  0.1592099960000013  0.6032400129999971  0.1350799949999981
  0.1578699949999987  0.8463000059999999  0.1229399959999995
  0.4023500079999991  0.0907400030000005  0.1343899969999995
  0.4005900029999978  0.3324100079999965  0.1406300069999986
  0.4079599980000026  0.5918499830000030  0.1100199970000020
  0.4028599860000028  0.8467900159999999  0.1372199950000024
  0.6620799900000023  0.1004099990000000  0.1367100029999975
  0.6685699820000011  0.3622100059999980  0.1450400049999985
  0.6675900219999988  0.6035699840000035  0.1341899929999997
  0.6673399809999978  0.8467900159999999  0.1368200029999969
  0.9121400120000018  0.0905399990000006  0.1342500000000015
  0.9169300200000023  0.3614700139999982  0.1434399930000012
  0.9159600139999995  0.6083800199999985  0.1274300070000010
  0.9124799969999984  0.8463900089999967  0.1226499970000035
  0.4706600009999988  0.5598000290000016  0.6584399939999983
  0.4785099919999993  0.5435799959999983  0.6036199930000024
 
  0.00000000E+00  0.00000000E+00  0.00000000E+00
  0.00000000E+00  0.00000000E+00  0.00000000E+00
  0.00000000E+00  0.00000000E+00  0.00000000E+00
  0.00000000E+00  0.00000000E+00  0.00000000E+00
  0.00000000E+00  0.00000000E+00  0.00000000E+00
  0.00000000E+00  0.00000000E+00  0.00000000E+00
  0.00000000E+00  0.00000000E+00  0.00000000E+00
  0.00000000E+00  0.00000000E+00  0.00000000E+00
  0.00000000E+00  0.00000000E+00  0.00000000E+00
  0.00000000E+00  0.00000000E+00  0.00000000E+00
  0.00000000E+00  0.00000000E+00  0.00000000E+00
  0.00000000E+00  0.00000000E+00  0.00000000E+00
  0.00000000E+00  0.00000000E+00  0.00000000E+00
  0.00000000E+00  0.00000000E+00  0.00000000E+00
  0.00000000E+00  0.00000000E+00  0.00000000E+00
  0.00000000E+00  0.00000000E+00  0.00000000E+00
  0.00000000E+00  0.00000000E+00  0.00000000E+00
  0.00000000E+00  0.00000000E+00  0.00000000E+00
  0.00000000E+00  0.00000000E+00  0.00000000E+00
  0.00000000E+00  0.00000000E+00  0.00000000E+00
  0.00000000E+00  0.00000000E+00  0.00000000E+00
  0.00000000E+00  0.00000000E+00  0.00000000E+00
  0.00000000E+00  0.00000000E+00  0.00000000E+00
  0.00000000E+00  0.00000000E+00  0.00000000E+00
  0.00000000E+00  0.00000000E+00  0.00000000E+00
  0.00000000E+00  0.00000000E+00  0.00000000E+00
  0.00000000E+00  0.00000000E+00  0.00000000E+00
  0.00000000E+00  0.00000000E+00  0.00000000E+00
  0.00000000E+00  0.00000000E+00  0.00000000E+00
  0.00000000E+00  0.00000000E+00  0.00000000E+00
  0.00000000E+00  0.00000000E+00  0.00000000E+00
  0.00000000E+00  0.00000000E+00  0.00000000E+00
  0.00000000E+00  0.00000000E+00  0.00000000E+00
  0.00000000E+00  0.00000000E+00  0.00000000E+00
  0.00000000E+00  0.00000000E+00  0.00000000E+00
  0.00000000E+00  0.00000000E+00  0.00000000E+00
  0.00000000E+00  0.00000000E+00  0.00000000E+00
  0.00000000E+00  0.00000000E+00  0.00000000E+00
  0.00000000E+00  0.00000000E+00  0.00000000E+00
  0.00000000E+00  0.00000000E+00  0.00000000E+00
  0.00000000E+00  0.00000000E+00  0.00000000E+00
  0.00000000E+00  0.00000000E+00  0.00000000E+00
  0.00000000E+00  0.00000000E+00  0.00000000E+00
  0.00000000E+00  0.00000000E+00  0.00000000E+00
  0.00000000E+00  0.00000000E+00  0.00000000E+00
  0.00000000E+00  0.00000000E+00  0.00000000E+00
  0.00000000E+00  0.00000000E+00  0.00000000E+00
  0.00000000E+00  0.00000000E+00  0.00000000E+00
  0.00000000E+00  0.00000000E+00  0.00000000E+00
  0.00000000E+00  0.00000000E+00  0.00000000E+00
  0.00000000E+00  0.00000000E+00  0.00000000E+00
  0.00000000E+00  0.00000000E+00  0.00000000E+00
  0.00000000E+00  0.00000000E+00  0.00000000E+00
  0.00000000E+00  0.00000000E+00  0.00000000E+00
  0.00000000E+00  0.00000000E+00  0.00000000E+00
  0.00000000E+00  0.00000000E+00  0.00000000E+00
  0.00000000E+00  0.00000000E+00  0.00000000E+00
  0.00000000E+00  0.00000000E+00  0.00000000E+00
  0.00000000E+00  0.00000000E+00  0.00000000E+00
  0.00000000E+00  0.00000000E+00  0.00000000E+00
  0.00000000E+00  0.00000000E+00  0.00000000E+00
  0.00000000E+00  0.00000000E+00  0.00000000E+00
  0.00000000E+00  0.00000000E+00  0.00000000E+00
  0.00000000E+00  0.00000000E+00  0.00000000E+00
  0.00000000E+00  0.00000000E+00  0.00000000E+00
  0.00000000E+00  0.00000000E+00  0.00000000E+00
  0.00000000E+00  0.00000000E+00  0.00000000E+00
  0.00000000E+00  0.00000000E+00  0.00000000E+00
  0.00000000E+00  0.00000000E+00  0.00000000E+00
  0.00000000E+00  0.00000000E+00  0.00000000E+00
  0.00000000E+00  0.00000000E+00  0.00000000E+00
  0.00000000E+00  0.00000000E+00  0.00000000E+00
  0.00000000E+00  0.00000000E+00  0.00000000E+00
  0.00000000E+00  0.00000000E+00  0.00000000E+00
  0.00000000E+00  0.00000000E+00  0.00000000E+00
  0.00000000E+00  0.00000000E+00  0.00000000E+00
  0.00000000E+00  0.00000000E+00  0.00000000E+00
  0.00000000E+00  0.00000000E+00  0.00000000E+00
  0.00000000E+00  0.00000000E+00  0.00000000E+00
  0.00000000E+00  0.00000000E+00  0.00000000E+00
  0.00000000E+00  0.00000000E+00  0.00000000E+00
  0.00000000E+00  0.00000000E+00  0.00000000E+00
  0.00000000E+00  0.00000000E+00  0.00000000E+00
  0.00000000E+00  0.00000000E+00  0.00000000E+00
  0.00000000E+00  0.00000000E+00  0.00000000E+00
  0.00000000E+00  0.00000000E+00  0.00000000E+00
  0.00000000E+00  0.00000000E+00  0.00000000E+00
  0.00000000E+00  0.00000000E+00  0.00000000E+00
  0.00000000E+00  0.00000000E+00  0.00000000E+00
  0.00000000E+00  0.00000000E+00  0.00000000E+00
  0.00000000E+00  0.00000000E+00  0.00000000E+00
  0.00000000E+00  0.00000000E+00  0.00000000E+00
  0.00000000E+00  0.00000000E+00  0.00000000E+00
  0.00000000E+00  0.00000000E+00  0.00000000E+00
  0.00000000E+00  0.00000000E+00  0.00000000E+00
  0.00000000E+00  0.00000000E+00  0.00000000E+00
  0.00000000E+00  0.00000000E+00  0.00000000E+00
  0.00000000E+00  0.00000000E+00  0.00000000E+00
  0.00000000E+00  0.00000000E+00  0.00000000E+00
  0.00000000E+00  0.00000000E+00  0.00000000E+00
  0.00000000E+00  0.00000000E+00  0.00000000E+00
  0.00000000E+00  0.00000000E+00  0.00000000E+00
  0.00000000E+00  0.00000000E+00  0.00000000E+00
  0.00000000E+00  0.00000000E+00  0.00000000E+00
  0.00000000E+00  0.00000000E+00  0.00000000E+00
  0.00000000E+00  0.00000000E+00  0.00000000E+00
  0.00000000E+00  0.00000000E+00  0.00000000E+00
  0.00000000E+00  0.00000000E+00  0.00000000E+00
  0.00000000E+00  0.00000000E+00  0.00000000E+00
