Si16                               
   1.00000000000000     
     5.3624447746476855    5.5400100183731507    0.0700508263882775
    -0.1026916424435065    5.4955175489648100    5.3928259065244042
     5.3656648144783077    0.0000000000074444    5.3656648144915682
   Si
    16
Direct
  0.3212010412955938  1.3122856727003269  0.3107451948534489
  0.3099668704222282  1.3146348632874632  0.8288902495003547
  0.3190369218612182  0.8111634591779978  0.3126913394179140
  0.2964956802844875  0.8343361799802838  0.7984199634929852
 -0.1766690667617155  1.3078055467087799  0.3088469130669039
 -0.2038766002481691  1.3305436458574109  0.8018907176046941
 -0.2003648833919671  0.8282181476495500  0.3026407148396788
 -0.1675550956561834  0.8103292509940945  0.7973543668027023
 -0.0758170429801609  0.9622474667873430 -0.0839264059441386
 -0.0542200245872866  0.9178777992299831  0.4384155478173355
 -0.0619164867449546  0.4239763619295857 -0.0540445435655039
 -0.0538739091128493  0.4506419722481186  0.4087116766428151
 -0.5438457475714482  0.9409158460879290 -0.0753386574943992
 -0.5635400079666790  0.9382672549358126  0.4303926097780276
 -0.5720496423072036  0.4530161102738596 -0.0725936233880037
 -0.5653120928179174  0.4206999169232948  0.4580255784680702
