AMSinput                                
   1.00000000000000     
    15.8062400818000004    0.0000000000000000    0.0000000000000000
    -7.9031200409000002   13.6886054491000007    0.0000000000000000
    -0.2917218501000000   -0.2491921562000000   20.1106499320000012
   Mo   S    Si
    25    50    32
Direct
  0.0627410860000026  0.1228765469999971  0.3458256420000012
  0.0626918000000032  0.3228378590000034  0.3441694079999991
  0.0626918000000032  0.5228819250000001  0.3441694679999969
  0.0627411010000003  0.7229071860000005  0.3458256719999966
  0.0627615300000031  0.9229063989999986  0.3468064070000025
  0.2627232370000030  0.1228616459999969  0.3451564909999973
  0.2626906039999994  0.3228379190000012  0.3441692290000020
  0.2626888449999996  0.5228556989999973  0.3435564039999974
  0.2626906039999994  0.7228806609999978  0.3441693190000024
  0.2627232370000030  0.9228982329999980  0.3451565209999998
  0.4626903830000018  0.1228583979999982  0.3440020379999993
  0.4627089199999972  0.3228601519999970  0.3440881069999975
  0.4627349670000029  0.5228820439999993  0.3441766199999989
  0.4627349670000029  0.7228809599999977  0.3441766500000014
  0.4627089499999997  0.9228760600000001  0.3440881370000000
  0.6627064349999969  0.1228584200000000  0.3440076409999975
  0.6627064349999969  0.3228744860000035  0.3440076110000021
  0.6627562050000009  0.5228946209999989  0.3451686200000026
  0.6627719399999989  0.7229073640000010  0.3458372059999988
  0.6627562050000009  0.9228983519999971  0.3451686499999980
  0.8627195950000015  0.1228617499999984  0.3451643880000006
  0.8626927139999978  0.3228599429999974  0.3440889720000015
  0.8627195950000015  0.5228945610000011  0.3451643590000018
  0.8627868290000009  0.7229316230000009  0.3468134109999994
  0.8627868290000009  0.9229065780000028  0.3468134399999983
  0.1266342850000015  0.0541039670000032  0.2676844000000003
  0.1267783190000031  0.2538922430000028  0.2661631409999998
  0.1268749090000014  0.4546024200000005  0.2652857300000022
  0.1267783489999985  0.6552237269999992  0.2661632299999965
  0.1266342999999992  0.8548814059999970  0.2676844300000027
  0.3265557590000014  0.0544471589999986  0.2662778790000004
  0.3268583710000001  0.2542172070000035  0.2659207279999976
  0.3273641769999998  0.4546047750000000  0.2652887400000026
  0.3273641769999998  0.6550893189999982  0.2652888000000004
  0.3268583420000013  0.8549766539999979  0.2659208179999979
  0.5271659490000005  0.0546888929999980  0.2654310169999974
  0.5271659490000005  0.2548081280000005  0.2654309870000020
  0.5277795200000028  0.4551388619999983  0.2659281489999969
  0.5281128880000026  0.6552253369999974  0.2661740480000034
  0.5277795789999971  0.8549762370000025  0.2659281789999994
  0.7275604610000030  0.0544444880000015  0.2662884289999994
  0.7272794840000003  0.2548052969999972  0.2654336089999987
  0.7275604610000030  0.4554546179999974  0.2662884289999994
  0.7279658909999966  0.6554363369999976  0.2676963810000004
  0.7279659510000016  0.8548807499999995  0.2676964400000017
  0.9271871449999978  0.0541026889999969  0.2676900029999985
  0.9270129200000028  0.2542132740000014  0.2659237980000029
  0.9270129800000007  0.4551350770000013  0.2659237980000029
  0.9271871449999978  0.6554354430000018  0.2676900029999985
  0.9272875189999965  0.8548235889999987  0.2686560450000002
  0.1321093290000022  0.0582480429999990  0.4242708680000007
  0.1318987459999974  0.2583461110000016  0.4229116739999981
  0.1317661699999988  0.4577417369999992  0.4220623670000023
  0.1318987610000022  0.6572774649999999  0.4229117329999994
  0.1321093139999974  0.8575981859999970  0.4242708680000007
  0.3320709469999983  0.0578982979999978  0.4230010510000000
  0.3318021890000011  0.2580637630000027  0.4226490559999974
  0.3313923179999989  0.4577400980000021  0.4220650489999969
  0.3313923179999989  0.6573695539999989  0.4220650789999993
  0.3318021890000011  0.8574609759999987  0.4226491749999965
  0.5315467120000008  0.0576730370000007  0.4221837219999998
  0.5315467120000008  0.2575920519999997  0.4221836919999973
  0.5310964580000004  0.4573574659999977  0.4226563870000035
  0.5308279990000031  0.6572764519999978  0.4229215089999983
  0.5310964580000004  0.8574615719999983  0.4226563870000035
  0.7312821749999969  0.0579008349999981  0.4230105279999989
  0.7314701680000013  0.2575942870000034  0.4221859570000035
  0.7312822339999983  0.4571070670000026  0.4230104680000011
  0.7309923769999997  0.6571302409999973  0.4242820739999971
  0.7309923170000019  0.8575991390000013  0.4242821039999995
  0.9316434859999987  0.0582495370000018  0.4242762029999980
  0.9317048189999966  0.2580670420000004  0.4226522450000019
  0.9317048189999966  0.4573602970000010  0.4226522740000007
  0.9316434859999987  0.6571308369999969  0.4242761730000026
  0.9316093919999986  0.8576774000000000  0.4252299070000021
  0.0886127799999983  0.1849106700000007  0.0578831360000009
  0.0882752090000025  0.4343861340000004  0.0579136650000009
  0.0886127870000024  0.6841989759999976  0.0578830500000009
  0.0892137590000033  0.9348546860000013  0.0577151509999965
  0.3389588590000017  0.1847957669999971  0.0587015150000028
  0.3384204210000021  0.4343838989999966  0.0579176950000004
  0.3384203609999972  0.6845335360000036  0.0579174089999981
  0.3389588000000003  0.9346672889999965  0.0587011539999978
  0.5884082319999990  0.1844587619999984  0.0592877899999991
  0.5880433920000030  0.4338791070000028  0.0586976929999992
  0.5878925319999979  0.6841946839999977  0.0578832630000008
  0.5880434509999972  0.9346684220000014  0.0586971979999973
  0.8381766680000027  0.1847980320000033  0.0586934829999990
  0.8381766079999977  0.4338825640000010  0.0586935919999974
  0.8379488590000008  0.6835899350000005  0.0577107000000012
  0.8379489180000022  0.9348543289999967  0.0577105360000019
  0.1729806210000007  0.1022130099999998  0.0913991330000030
  0.1728239509999980  0.3520944420000021  0.0916524980000020
  0.1728239360000003  0.6015251870000000  0.0916523189999978
  0.1729806359999984  0.8515611890000017  0.0913989390000012
  0.4227721390000028  0.1017883419999990  0.0926596449999977
  0.4225059449999975  0.3518833219999991  0.0925617139999986
  0.4222531019999991  0.6015244720000013  0.0916525129999997
  0.4225058849999996  0.8514263630000016  0.0925610290000023
  0.6726092099999974  0.1017904730000012  0.0926543619999975
  0.6726092700000024  0.3516232670000008  0.0926546600000009
  0.6721268300000034  0.6013578179999968  0.0913859610000003
  0.6721268889999976  0.8515625000000000  0.0913856100000032
  0.9227811100000025  0.1022154090000029  0.0913896039999997
  0.9229677320000036  0.3518857059999974  0.0925557609999998
  0.9227811100000025  0.6013590100000030  0.0913895739999973
  0.9225761889999973  0.8516759279999988  0.0893675089999988
 
  0.00000000E+00  0.00000000E+00  0.00000000E+00
  0.00000000E+00  0.00000000E+00  0.00000000E+00
  0.00000000E+00  0.00000000E+00  0.00000000E+00
  0.00000000E+00  0.00000000E+00  0.00000000E+00
  0.00000000E+00  0.00000000E+00  0.00000000E+00
  0.00000000E+00  0.00000000E+00  0.00000000E+00
  0.00000000E+00  0.00000000E+00  0.00000000E+00
  0.00000000E+00  0.00000000E+00  0.00000000E+00
  0.00000000E+00  0.00000000E+00  0.00000000E+00
  0.00000000E+00  0.00000000E+00  0.00000000E+00
  0.00000000E+00  0.00000000E+00  0.00000000E+00
  0.00000000E+00  0.00000000E+00  0.00000000E+00
  0.00000000E+00  0.00000000E+00  0.00000000E+00
  0.00000000E+00  0.00000000E+00  0.00000000E+00
  0.00000000E+00  0.00000000E+00  0.00000000E+00
  0.00000000E+00  0.00000000E+00  0.00000000E+00
  0.00000000E+00  0.00000000E+00  0.00000000E+00
  0.00000000E+00  0.00000000E+00  0.00000000E+00
  0.00000000E+00  0.00000000E+00  0.00000000E+00
  0.00000000E+00  0.00000000E+00  0.00000000E+00
  0.00000000E+00  0.00000000E+00  0.00000000E+00
  0.00000000E+00  0.00000000E+00  0.00000000E+00
  0.00000000E+00  0.00000000E+00  0.00000000E+00
  0.00000000E+00  0.00000000E+00  0.00000000E+00
  0.00000000E+00  0.00000000E+00  0.00000000E+00
  0.00000000E+00  0.00000000E+00  0.00000000E+00
  0.00000000E+00  0.00000000E+00  0.00000000E+00
  0.00000000E+00  0.00000000E+00  0.00000000E+00
  0.00000000E+00  0.00000000E+00  0.00000000E+00
  0.00000000E+00  0.00000000E+00  0.00000000E+00
  0.00000000E+00  0.00000000E+00  0.00000000E+00
  0.00000000E+00  0.00000000E+00  0.00000000E+00
  0.00000000E+00  0.00000000E+00  0.00000000E+00
  0.00000000E+00  0.00000000E+00  0.00000000E+00
  0.00000000E+00  0.00000000E+00  0.00000000E+00
  0.00000000E+00  0.00000000E+00  0.00000000E+00
  0.00000000E+00  0.00000000E+00  0.00000000E+00
  0.00000000E+00  0.00000000E+00  0.00000000E+00
  0.00000000E+00  0.00000000E+00  0.00000000E+00
  0.00000000E+00  0.00000000E+00  0.00000000E+00
  0.00000000E+00  0.00000000E+00  0.00000000E+00
  0.00000000E+00  0.00000000E+00  0.00000000E+00
  0.00000000E+00  0.00000000E+00  0.00000000E+00
  0.00000000E+00  0.00000000E+00  0.00000000E+00
  0.00000000E+00  0.00000000E+00  0.00000000E+00
  0.00000000E+00  0.00000000E+00  0.00000000E+00
  0.00000000E+00  0.00000000E+00  0.00000000E+00
  0.00000000E+00  0.00000000E+00  0.00000000E+00
  0.00000000E+00  0.00000000E+00  0.00000000E+00
  0.00000000E+00  0.00000000E+00  0.00000000E+00
  0.00000000E+00  0.00000000E+00  0.00000000E+00
  0.00000000E+00  0.00000000E+00  0.00000000E+00
  0.00000000E+00  0.00000000E+00  0.00000000E+00
  0.00000000E+00  0.00000000E+00  0.00000000E+00
  0.00000000E+00  0.00000000E+00  0.00000000E+00
  0.00000000E+00  0.00000000E+00  0.00000000E+00
  0.00000000E+00  0.00000000E+00  0.00000000E+00
  0.00000000E+00  0.00000000E+00  0.00000000E+00
  0.00000000E+00  0.00000000E+00  0.00000000E+00
  0.00000000E+00  0.00000000E+00  0.00000000E+00
  0.00000000E+00  0.00000000E+00  0.00000000E+00
  0.00000000E+00  0.00000000E+00  0.00000000E+00
  0.00000000E+00  0.00000000E+00  0.00000000E+00
  0.00000000E+00  0.00000000E+00  0.00000000E+00
  0.00000000E+00  0.00000000E+00  0.00000000E+00
  0.00000000E+00  0.00000000E+00  0.00000000E+00
  0.00000000E+00  0.00000000E+00  0.00000000E+00
  0.00000000E+00  0.00000000E+00  0.00000000E+00
  0.00000000E+00  0.00000000E+00  0.00000000E+00
  0.00000000E+00  0.00000000E+00  0.00000000E+00
  0.00000000E+00  0.00000000E+00  0.00000000E+00
  0.00000000E+00  0.00000000E+00  0.00000000E+00
  0.00000000E+00  0.00000000E+00  0.00000000E+00
  0.00000000E+00  0.00000000E+00  0.00000000E+00
  0.00000000E+00  0.00000000E+00  0.00000000E+00
  0.00000000E+00  0.00000000E+00  0.00000000E+00
  0.00000000E+00  0.00000000E+00  0.00000000E+00
  0.00000000E+00  0.00000000E+00  0.00000000E+00
  0.00000000E+00  0.00000000E+00  0.00000000E+00
  0.00000000E+00  0.00000000E+00  0.00000000E+00
  0.00000000E+00  0.00000000E+00  0.00000000E+00
  0.00000000E+00  0.00000000E+00  0.00000000E+00
  0.00000000E+00  0.00000000E+00  0.00000000E+00
  0.00000000E+00  0.00000000E+00  0.00000000E+00
  0.00000000E+00  0.00000000E+00  0.00000000E+00
  0.00000000E+00  0.00000000E+00  0.00000000E+00
  0.00000000E+00  0.00000000E+00  0.00000000E+00
  0.00000000E+00  0.00000000E+00  0.00000000E+00
  0.00000000E+00  0.00000000E+00  0.00000000E+00
  0.00000000E+00  0.00000000E+00  0.00000000E+00
  0.00000000E+00  0.00000000E+00  0.00000000E+00
  0.00000000E+00  0.00000000E+00  0.00000000E+00
  0.00000000E+00  0.00000000E+00  0.00000000E+00
  0.00000000E+00  0.00000000E+00  0.00000000E+00
  0.00000000E+00  0.00000000E+00  0.00000000E+00
  0.00000000E+00  0.00000000E+00  0.00000000E+00
  0.00000000E+00  0.00000000E+00  0.00000000E+00
  0.00000000E+00  0.00000000E+00  0.00000000E+00
  0.00000000E+00  0.00000000E+00  0.00000000E+00
  0.00000000E+00  0.00000000E+00  0.00000000E+00
  0.00000000E+00  0.00000000E+00  0.00000000E+00
  0.00000000E+00  0.00000000E+00  0.00000000E+00
  0.00000000E+00  0.00000000E+00  0.00000000E+00
  0.00000000E+00  0.00000000E+00  0.00000000E+00
  0.00000000E+00  0.00000000E+00  0.00000000E+00
  0.00000000E+00  0.00000000E+00  0.00000000E+00
  0.00000000E+00  0.00000000E+00  0.00000000E+00
