New structure
1.0
       30.0000000000         0.0000000000         0.0000000000
        0.0000000000        30.0000000000         0.0000000000
        0.0000000000         0.0000000000        30.0000000000
    W   Se
   21   50
Direct
     0.216665998         0.263992995         0.214534998
     0.327504009         0.263992012         0.214534998
     0.272085011         0.359979004         0.214534998
     0.438340992         0.263990998         0.214534998
     0.382921994         0.359977990         0.214534998
     0.327500999         0.455967009         0.214534998
     0.549169004         0.263998002         0.214534998
     0.493750006         0.359984994         0.214534998
     0.438329011         0.455972999         0.214534998
     0.382921010         0.551955998         0.214534998
     0.660007000         0.263996005         0.214534998
     0.604587972         0.359982997         0.214534998
     0.549167991         0.455971986         0.214534998
     0.493759006         0.551953971         0.214534998
     0.438340008         0.647940993         0.214534998
     0.770843983         0.263996005         0.214534998
     0.715425014         0.359982997         0.214534998
     0.660004020         0.455971003         0.214534998
     0.604596019         0.551953971         0.214534998
     0.549176991         0.647940993         0.214534998
     0.493757010         0.743929029         0.214534998
     0.272087991         0.232003003         0.158476993
     0.216670007         0.327980995         0.158480003
     0.382923990         0.232004002         0.158469006
     0.327506006         0.327982008         0.158472002
     0.272089005         0.423969001         0.158480003
     0.493752003         0.231999993         0.158466995
     0.438333988         0.327977985         0.158469006
     0.382916987         0.423965007         0.158476993
     0.327504009         0.519958019         0.158466995
     0.604589999         0.232006997         0.158476993
     0.549172997         0.327984989         0.158480003
     0.493755996         0.423972011         0.158488005
     0.438342988         0.519964993         0.158476993
     0.382925004         0.615943015         0.158480003
     0.715426028         0.232007995         0.158469006
     0.660008013         0.327986002         0.158472002
     0.604592025         0.423974007         0.158480003
     0.549179018         0.519966006         0.158469006
     0.493761003         0.615944982         0.158472002
     0.438344002         0.711932003         0.158480003
     0.770837009         0.327982008         0.158469006
     0.715420008         0.423969001         0.158476993
     0.660007000         0.519962013         0.158466995
     0.604588985         0.615939975         0.158469006
     0.549171984         0.711928010         0.158476993
     0.272087991         0.232003003         0.270592988
     0.216670007         0.327980995         0.270590007
     0.382923990         0.232004002         0.270601004
     0.327506006         0.327982008         0.270597994
     0.272089005         0.423969001         0.270590007
     0.493752003         0.231999993         0.270604014
     0.438333988         0.327977985         0.270601004
     0.382916987         0.423965007         0.270592988
     0.327504009         0.519958019         0.270604014
     0.604589999         0.232006997         0.270592988
     0.549172997         0.327984989         0.270590007
     0.493755996         0.423972011         0.270583004
     0.438342988         0.519964993         0.270592988
     0.382925004         0.615943015         0.270590007
     0.715426028         0.232007995         0.270601004
     0.660008013         0.327986002         0.270597994
     0.604592025         0.423974007         0.270590007
     0.549179018         0.519966006         0.270601004
     0.493761003         0.615944982         0.270597994
     0.438344002         0.711932003         0.270590007
     0.770837009         0.327982008         0.270601004
     0.715420008         0.423969001         0.270592988
     0.660007000         0.519962013         0.270604014
     0.604588985         0.615939975         0.270601004
     0.549171984         0.711928010         0.270592988
