GRAPHENE-2D-2atoms-DOS
ISMEAR=1
SIGMA=0.2
ISIF=3
PREC=Accurate
ISPIN=2
MAGMOM=2*1 
LORBIT=12
ICHARG=11
LCHARG=.FALSE.
NEDOS=3001
EMAX=15
EMIN=-15
NSW=0
IBRION=2
LWAVE=.FALSE.
LREAL=.FALSE.
EDIFF=1E-5
EDIFFG=-0.01
ALGO=Fast


