C                                       
   1.00000000000000     
     1.2361866146430365   -2.1411380241980438   -0.0000000000000000
     1.2361866146430365    2.1411380241980438    0.0000000000000000
     0.0000000000000000    0.0000000000000000    6.3214219451655982
   C 
     2
Selective dynamics
Direct
     0.3333333333330017    0.1666666666669983    0.5000000000000000   T   T   T
     0.6666666666669983    0.8333333333330017    0.5000000000000000   T   T   T
 
  0.00000000E+00  0.00000000E+00  0.00000000E+00
  0.00000000E+00  0.00000000E+00  0.00000000E+00
