Si16                                    
   1.00000000000000     
    -5.4687279999999996   -5.4687279999999996    0.0000000000000000
    -5.4687279999999996    0.0000000000000000   -5.4687279999999996
     0.0000000000000000   -5.4687279999999996   -5.4687279999999996
   Si
    16
Direct
     0.1250000000000000    0.1250000000000000    0.1250000000000000
     0.1250000000000000    0.1250000000000000    0.6250000000000000
     0.1250000000000000    0.6250000000000000    0.1250000000000000
     0.1250000000000000    0.6250000000000000    0.6250000000000000
     0.6250000000000000    0.1250000000000000    0.1250000000000000
     0.6250000000000000    0.1250000000000000    0.6250000000000000
     0.6250000000000000    0.6250000000000000    0.1250000000000000
     0.6250000000000000    0.6250000000000000    0.6250000000000000
     0.2500000000000000    0.2500000000000000    0.2500000000000000
     0.2500000000000000    0.2500000000000000    0.7500000000000000
     0.2500000000000000    0.7500000000000000    0.2500000000000000
     0.2500000000000000    0.7500000000000000    0.7500000000000000
     0.7500000000000000    0.2500000000000000    0.2500000000000000
     0.7500000000000000    0.2500000000000000    0.7500000000000000
     0.7500000000000000    0.7500000000000000    0.2500000000000000
     0.7500000000000000    0.7500000000000000    0.7500000000000000
Lattice velocities and vectors
           1
  0.65357952E-02  0.39746409E-02  0.38846494E-02
  0.34584376E-03  0.73773569E-03  0.78341699E-02
  0.25603885E-02  0.12651309E-02  0.45151830E-02
 -0.54624837E+01 -0.54539406E+01  0.28131845E-02
 -0.54663207E+01  0.11555301E-01 -0.54547654E+01
  0.14658463E-15 -0.54629455E+01 -0.54629455E+01
 
  0.32327613E-02  0.30060449E-02 -0.32373734E-02
 -0.18810419E-02  0.10007914E-02 -0.32956577E-03
 -0.30147974E-02 -0.18882677E-02  0.27273283E-02
 -0.29284712E-02 -0.30007636E-02  0.40059030E-02
 -0.36784087E-02  0.65111689E-02  0.42543623E-02
  0.25895165E-02 -0.62375832E-03  0.31347834E-04
 -0.70926680E-02  0.53200053E-04  0.49278799E-03
  0.59426800E-03 -0.56442575E-03  0.15526811E-02
  0.99605001E-02 -0.16405806E-02  0.12511977E-02
 -0.23146279E-02 -0.19023342E-02  0.35423967E-02
  0.35887670E-02  0.48631885E-02 -0.30247910E-03
 -0.41086176E-04 -0.37005818E-02 -0.21861365E-03
  0.14513436E-02 -0.18721048E-02  0.44592011E-02
  0.21964826E-02 -0.53880692E-02  0.65100469E-02
 -0.42411978E-02 -0.35178683E-02 -0.59600452E-03
  0.43677375E-02  0.10295725E-02  0.36087585E-02
 
           1
   2.00000000000000     
  0.10000000E+01  0.00000000E+00  0.00000000E+00  0.00000000E+00
  0.12326431E+00  0.12555167E+00  0.12563347E+00
  0.12510087E+00  0.12558744E+00  0.62453415E+00
  0.12639761E+00  0.62470642E+00  0.12429538E+00
  0.12681975E+00  0.62425299E+00  0.62428026E+00
  0.62526038E+00  0.12608564E+00  0.12235858E+00
  0.62464569E+00  0.12440662E+00  0.62558083E+00
  0.62637963E+00  0.62621638E+00  0.12360574E+00
  0.62527893E+00  0.62450384E+00  0.62492712E+00
  0.24870527E+00  0.24764950E+00  0.25188824E+00
  0.25142123E+00  0.24942664E+00  0.74927635E+00
  0.24839651E+00  0.75028932E+00  0.24982103E+00
  0.25064529E+00  0.74937019E+00  0.75070923E+00
  0.75089383E+00  0.24857579E+00  0.24979002E+00
  0.75177698E+00  0.24742063E+00  0.75019308E+00
  0.75131201E+00  0.75024067E+00  0.24997857E+00
  0.74967240E+00  0.74872931E+00  0.74994744E+00
  0.00000000E+00  0.00000000E+00  0.00000000E+00
  0.00000000E+00  0.00000000E+00  0.00000000E+00
  0.00000000E+00  0.00000000E+00  0.00000000E+00
  0.00000000E+00  0.00000000E+00  0.00000000E+00
  0.00000000E+00  0.00000000E+00  0.00000000E+00
  0.00000000E+00  0.00000000E+00  0.00000000E+00
  0.00000000E+00  0.00000000E+00  0.00000000E+00
  0.00000000E+00  0.00000000E+00  0.00000000E+00
  0.00000000E+00  0.00000000E+00  0.00000000E+00
  0.00000000E+00  0.00000000E+00  0.00000000E+00
  0.00000000E+00  0.00000000E+00  0.00000000E+00
  0.00000000E+00  0.00000000E+00  0.00000000E+00
  0.00000000E+00  0.00000000E+00  0.00000000E+00
  0.00000000E+00  0.00000000E+00  0.00000000E+00
  0.00000000E+00  0.00000000E+00  0.00000000E+00
  0.00000000E+00  0.00000000E+00  0.00000000E+00
  0.00000000E+00  0.00000000E+00  0.00000000E+00
  0.00000000E+00  0.00000000E+00  0.00000000E+00
  0.00000000E+00  0.00000000E+00  0.00000000E+00
  0.00000000E+00  0.00000000E+00  0.00000000E+00
  0.00000000E+00  0.00000000E+00  0.00000000E+00
  0.00000000E+00  0.00000000E+00  0.00000000E+00
  0.00000000E+00  0.00000000E+00  0.00000000E+00
  0.00000000E+00  0.00000000E+00  0.00000000E+00
  0.00000000E+00  0.00000000E+00  0.00000000E+00
  0.00000000E+00  0.00000000E+00  0.00000000E+00
  0.00000000E+00  0.00000000E+00  0.00000000E+00
  0.00000000E+00  0.00000000E+00  0.00000000E+00
  0.00000000E+00  0.00000000E+00  0.00000000E+00
  0.00000000E+00  0.00000000E+00  0.00000000E+00
  0.00000000E+00  0.00000000E+00  0.00000000E+00
  0.00000000E+00  0.00000000E+00  0.00000000E+00
