Si8                                     
   1.00000000000000     
     5.4687280654999997    0.0000000000000000    0.0000000000000000
     0.0000000000000000    5.4687280654999997    0.0000000000000000
     0.0000000000000000    0.0000000000000000    5.4687280654999997
   Si
     8
Direct
     0.3726032778006297    0.5990312437843092    0.2321187982135910
     0.0927309192911226   -0.0419132823673964    0.3907277386707952
     0.2229080715740184    0.2117183938807459    0.7448333108979002
     0.0277645605563388    0.4513682310149235    0.0073938269733559
     0.8174513754060534    0.6569541144203735    0.6205251978669075
     0.4522172617565475    0.0422617526285327    0.0525900319725833
     0.6882975590957293    0.3608957446592198    0.2017336110567569
     0.3260269745195605    0.7196838019792922    0.7500774843481098
 
  0.49500153E-02 -0.71119654E-02  0.23329522E-02
  0.86876209E-02  0.18145988E-02 -0.29184046E-02
  0.21606465E-02 -0.50168341E-04 -0.32070378E-02
 -0.71598723E-03 -0.42358483E-02  0.39038496E-02
 -0.36924283E-02 -0.30282690E-02 -0.51292309E-02
 -0.59960864E-02  0.44436046E-02  0.86706327E-02
 -0.93004522E-02  0.78085359E-02  0.30474676E-02
  0.39066714E-02  0.35951178E-03 -0.67002287E-02
 
           1
   3.00000000000000     
  0.16128247E+01  0.11177039E+00  0.11709417E+00  0.14983924E+01
  0.37531873E+00  0.59512981E+00  0.23339859E+00
  0.97496719E-01  0.95908216E+00  0.38912678E+00
  0.22409335E+00  0.21169087E+00  0.74307401E+00
  0.27371789E-01  0.44904456E+00  0.95353759E-02
  0.81542581E+00  0.65529289E+00  0.61771144E+00
  0.44892797E+00  0.44699397E-01  0.57346512E-01
  0.68319558E+00  0.36517930E+00  0.20340537E+00
  0.32817007E+00  0.71988102E+00  0.74640192E+00
  0.00000000E+00  0.00000000E+00  0.00000000E+00
  0.00000000E+00  0.00000000E+00  0.00000000E+00
  0.00000000E+00  0.00000000E+00  0.00000000E+00
  0.00000000E+00  0.00000000E+00  0.00000000E+00
  0.00000000E+00  0.00000000E+00  0.00000000E+00
  0.00000000E+00  0.00000000E+00  0.00000000E+00
  0.00000000E+00  0.00000000E+00  0.00000000E+00
  0.00000000E+00  0.00000000E+00  0.00000000E+00
  0.00000000E+00  0.00000000E+00  0.00000000E+00
  0.00000000E+00  0.00000000E+00  0.00000000E+00
  0.00000000E+00  0.00000000E+00  0.00000000E+00
  0.00000000E+00  0.00000000E+00  0.00000000E+00
  0.00000000E+00  0.00000000E+00  0.00000000E+00
  0.00000000E+00  0.00000000E+00  0.00000000E+00
  0.00000000E+00  0.00000000E+00  0.00000000E+00
  0.00000000E+00  0.00000000E+00  0.00000000E+00
