Si16                                    
   1.00000000000000     
    -5.4410600650869547   -5.3339779479305012    0.1752254901941238
    -5.4585301720050303   -0.0426114552144014   -5.5011416272222569
    -0.0000000000037158   -5.4450646659516400   -5.4450646659577338
   Si
    16
Direct
  0.6606154536874529  0.2360956581129705 -0.2474775054180872
  0.7075252012766495  0.2379457061732651  0.2086655902510348
  0.6963128662213559  0.7466167944965936 -0.2913145409529478
  0.6974880993434950  0.7460515056246327  0.2088172665279352
  1.1825342136287298  0.2279029889453776 -0.2666262935775867
  1.2094348117464806  0.2296777632936230  0.2330360246353964
  1.1913740517883369  0.7311960698941351 -0.2640940732241309
  1.2111725573442249  0.7258180374195849  0.2397123834460610
  0.8204426107933490  0.3786297598112641 -0.1651160077506055
  0.8114269275595126  0.3605967577708740  0.3736921190107417
  0.8248448291211715  0.8736262838316809 -0.1577699578548004
  0.8202199056893463  0.8469021883348976  0.3549367662333182
  1.2930575309281587  0.3731874717531389 -0.1622066433098448
  1.3514478817568132  0.3448603541096532  0.3533560561469962
  1.3327924182388688  0.8452729451507155 -0.1452804913695126
  1.3280714615737168  0.8606829463092985  0.3440969476919519
