AMSinput                                
   1.00000000000000     
    15.8063402176000007    0.0000000000000000    0.0000000000000000
    -7.9031730543999998   13.6887014807000007    0.0000000000000000
    -0.2955265953000000   -0.1932597868000000   20.1100593453999998
   Mo   S    Si   C    O 
    25    50    32     1     1
Direct
  0.0600234639999968  0.1186529100000016  0.3448947970000020
  0.0599755940000009  0.3186197579999970  0.3432517950000005
  0.0599761080000007  0.5186640020000013  0.3432305749999998
  0.0600202870000004  0.7186822890000002  0.3448618950000011
  0.0600408760000022  0.9186778070000017  0.3458487689999998
  0.2600035669999983  0.1186387170000032  0.3441822830000021
  0.2599729300000035  0.3186182680000016  0.3432460430000006
  0.2599749569999972  0.5186395050000030  0.3426589370000030
  0.2599742709999973  0.7186629770000010  0.3432345089999984
  0.2600018079999984  0.9186769720000001  0.3441721800000010
  0.4599729780000033  0.1186427470000027  0.3430550989999972
  0.4599935110000004  0.3186420199999986  0.3431754109999972
  0.4600189630000031  0.5186601280000005  0.3433312479999984
  0.4600219730000035  0.7186650630000031  0.3433469830000035
  0.4599928860000020  0.9186614750000004  0.3431922790000002
  0.6599897150000018  0.1186414880000015  0.3431375620000026
  0.6599898340000010  0.3186577860000028  0.3431123499999984
  0.6600373389999987  0.5186722870000011  0.3443137109999981
  0.6600543859999988  0.7186837790000027  0.3450358810000012
  0.6600394849999986  0.9186768530000009  0.3443576399999984
  0.8600037690000022  0.1186404529999976  0.3442968430000022
  0.8599764699999994  0.3186415139999994  0.3431907000000010
  0.8600004319999996  0.5186731220000027  0.3442528839999994
  0.8600669499999967  0.7187044020000002  0.3459264039999965
  0.8600713009999978  0.9186810850000029  0.3459523020000006
  0.1240364980000024  0.0501989309999971  0.2667203840000028
  0.1241990400000006  0.2499980329999971  0.2652321160000000
  0.1243141220000012  0.4507044850000028  0.2643603380000030
  0.1242068040000035  0.6513159869999967  0.2652039529999968
  0.1240388229999994  0.8509699110000000  0.2667021449999964
  0.3239946659999973  0.0505590889999965  0.2652922870000012
  0.3243022260000004  0.2503492829999985  0.2649791839999978
  0.3248243629999976  0.4507373269999988  0.2644005419999971
  0.3248359859999965  0.6512004140000016  0.2644008700000029
  0.3243161440000009  0.8510749940000011  0.2649755180000000
  0.5246208909999979  0.0507879439999996  0.2645225819999979
  0.5246120099999985  0.2509361799999965  0.2645069359999965
  0.5252203940000015  0.4512741269999978  0.2650599179999986
  0.5255556110000015  0.6513405440000000  0.2653606530000019
  0.5252341030000025  0.8510688539999975  0.2650860850000001
  0.7249725460000036  0.0505176969999965  0.2654475570000017
  0.7246987819999973  0.2508960959999982  0.2645460069999999
  0.7249660490000025  0.4515616600000030  0.2654019000000005
  0.7253590819999971  0.6515356900000029  0.2668554190000023
  0.7253624200000033  0.8509607909999986  0.2668796780000022
  0.9245755079999967  0.0501802750000024  0.2668013569999985
  0.9244201180000005  0.2502951029999991  0.2650249000000002
  0.9244201779999983  0.4512217039999982  0.2650012969999977
  0.9245746730000022  0.6515218620000027  0.2667615710000035
  0.9246636629999969  0.8509025569999977  0.2677509780000022
  0.1292637589999970  0.0537006480000031  0.4233148100000008
  0.1290408670000005  0.2538016139999968  0.4219878910000006
  0.1288943440000025  0.4532040949999967  0.4211438600000008
  0.1290300790000032  0.6527424450000012  0.4219623210000023
  0.1292576339999982  0.8530562520000018  0.4232986270000012
  0.3291947840000020  0.0533481869999974  0.4220280349999967
  0.3289270400000035  0.2534976009999994  0.4217122200000034
  0.3284982739999975  0.4531703890000003  0.4211784600000001
  0.3284835219999991  0.6528192159999975  0.4211762850000014
  0.3289051949999973  0.8529254199999983  0.4217072430000002
  0.5286666149999988  0.0531527400000016  0.4212794299999985
  0.5286741849999999  0.2530369759999971  0.4212665860000016
  0.5282281040000001  0.4527802469999997  0.4217901530000034
  0.5279482600000023  0.6527089479999972  0.4221104379999971
  0.5282103420000013  0.8529418110000009  0.4218226369999982
  0.7284442779999978  0.0534032549999992  0.4221631289999976
  0.7286205890000019  0.2530725299999972  0.4213010969999971
  0.7284401659999986  0.4525598589999973  0.4221267400000031
  0.7281666399999978  0.6525719759999973  0.4234366120000033
  0.7281735540000014  0.8530778290000001  0.4234707649999976
  0.9288255570000032  0.0537328979999998  0.4233903590000025
  0.9288650749999974  0.2535494569999983  0.4217591290000016
  0.9288617970000033  0.4528339510000023  0.4217345710000018
  0.9288136959999989  0.6525917049999990  0.4233547150000021
  0.9287975430000017  0.8531394600000013  0.4243279399999977
  0.0887421739999965  0.1824664179999971  0.0569817310000005
  0.0883820580000005  0.4319561719999996  0.0569850799999969
  0.0887288079999990  0.6817905899999985  0.0569810309999994
  0.0893472059999993  0.9324253799999980  0.0568485000000010
  0.3390370910000016  0.1823329180000002  0.0578457530000023
  0.3385089929999978  0.4319299759999993  0.0570389000000020
  0.3385026159999995  0.6820966009999978  0.0570322390000015
  0.3390270169999994  0.9322189689999973  0.0578381790000009
  0.5884819629999996  0.1820075210000027  0.0583880690000029
  0.5881259439999980  0.4314111469999986  0.0578107799999970
  0.5879734159999970  0.6817382569999992  0.0569983500000006
  0.5881174209999998  0.9322334530000020  0.0577971339999976
  0.8382780550000035  0.1823630929999993  0.0577457730000006
  0.8382823470000034  0.4314541219999981  0.0577549300000015
  0.8380827310000001  0.6811634299999980  0.0568070969999965
  0.8380820160000013  0.9324212670000023  0.0567983199999986
  0.1730180980000000  0.0996252369999979  0.0905676340000028
  0.1728442160000014  0.3495099249999996  0.0907511340000013
  0.1728408629999976  0.5989469290000002  0.0907522219999990
  0.1730141040000035  0.8489822749999973  0.0905799869999981
  0.4227955639999976  0.0991971939999985  0.0917929189999995
  0.4225296680000028  0.3492832179999965  0.0916855409999968
  0.4222641289999984  0.5989365579999983  0.0907632409999977
  0.4225213830000030  0.8488476280000015  0.0916793720000015
  0.6726523040000032  0.0992268769999995  0.0917316379999988
  0.6726592179999997  0.3490389290000024  0.0917430670000030
  0.6721819640000035  0.5987727640000031  0.0904495119999993
  0.6721731419999983  0.8490011689999974  0.0904284719999993
  0.9228399400000029  0.0996588539999976  0.0904492359999978
  0.9230107670000010  0.3493147189999988  0.0916118100000034
  0.9228448269999987  0.5987876060000019  0.0904884640000034
  0.9226547479999994  0.8491171000000008  0.0884783189999965
  0.6086732750000010  0.8139941100000030  0.6708755490000016
  0.5969623330000005  0.7878850700000015  0.6166727539999997
 
  0.00000000E+00  0.00000000E+00  0.00000000E+00
  0.00000000E+00  0.00000000E+00  0.00000000E+00
  0.00000000E+00  0.00000000E+00  0.00000000E+00
  0.00000000E+00  0.00000000E+00  0.00000000E+00
  0.00000000E+00  0.00000000E+00  0.00000000E+00
  0.00000000E+00  0.00000000E+00  0.00000000E+00
  0.00000000E+00  0.00000000E+00  0.00000000E+00
  0.00000000E+00  0.00000000E+00  0.00000000E+00
  0.00000000E+00  0.00000000E+00  0.00000000E+00
  0.00000000E+00  0.00000000E+00  0.00000000E+00
  0.00000000E+00  0.00000000E+00  0.00000000E+00
  0.00000000E+00  0.00000000E+00  0.00000000E+00
  0.00000000E+00  0.00000000E+00  0.00000000E+00
  0.00000000E+00  0.00000000E+00  0.00000000E+00
  0.00000000E+00  0.00000000E+00  0.00000000E+00
  0.00000000E+00  0.00000000E+00  0.00000000E+00
  0.00000000E+00  0.00000000E+00  0.00000000E+00
  0.00000000E+00  0.00000000E+00  0.00000000E+00
  0.00000000E+00  0.00000000E+00  0.00000000E+00
  0.00000000E+00  0.00000000E+00  0.00000000E+00
  0.00000000E+00  0.00000000E+00  0.00000000E+00
  0.00000000E+00  0.00000000E+00  0.00000000E+00
  0.00000000E+00  0.00000000E+00  0.00000000E+00
  0.00000000E+00  0.00000000E+00  0.00000000E+00
  0.00000000E+00  0.00000000E+00  0.00000000E+00
  0.00000000E+00  0.00000000E+00  0.00000000E+00
  0.00000000E+00  0.00000000E+00  0.00000000E+00
  0.00000000E+00  0.00000000E+00  0.00000000E+00
  0.00000000E+00  0.00000000E+00  0.00000000E+00
  0.00000000E+00  0.00000000E+00  0.00000000E+00
  0.00000000E+00  0.00000000E+00  0.00000000E+00
  0.00000000E+00  0.00000000E+00  0.00000000E+00
  0.00000000E+00  0.00000000E+00  0.00000000E+00
  0.00000000E+00  0.00000000E+00  0.00000000E+00
  0.00000000E+00  0.00000000E+00  0.00000000E+00
  0.00000000E+00  0.00000000E+00  0.00000000E+00
  0.00000000E+00  0.00000000E+00  0.00000000E+00
  0.00000000E+00  0.00000000E+00  0.00000000E+00
  0.00000000E+00  0.00000000E+00  0.00000000E+00
  0.00000000E+00  0.00000000E+00  0.00000000E+00
  0.00000000E+00  0.00000000E+00  0.00000000E+00
  0.00000000E+00  0.00000000E+00  0.00000000E+00
  0.00000000E+00  0.00000000E+00  0.00000000E+00
  0.00000000E+00  0.00000000E+00  0.00000000E+00
  0.00000000E+00  0.00000000E+00  0.00000000E+00
  0.00000000E+00  0.00000000E+00  0.00000000E+00
  0.00000000E+00  0.00000000E+00  0.00000000E+00
  0.00000000E+00  0.00000000E+00  0.00000000E+00
  0.00000000E+00  0.00000000E+00  0.00000000E+00
  0.00000000E+00  0.00000000E+00  0.00000000E+00
  0.00000000E+00  0.00000000E+00  0.00000000E+00
  0.00000000E+00  0.00000000E+00  0.00000000E+00
  0.00000000E+00  0.00000000E+00  0.00000000E+00
  0.00000000E+00  0.00000000E+00  0.00000000E+00
  0.00000000E+00  0.00000000E+00  0.00000000E+00
  0.00000000E+00  0.00000000E+00  0.00000000E+00
  0.00000000E+00  0.00000000E+00  0.00000000E+00
  0.00000000E+00  0.00000000E+00  0.00000000E+00
  0.00000000E+00  0.00000000E+00  0.00000000E+00
  0.00000000E+00  0.00000000E+00  0.00000000E+00
  0.00000000E+00  0.00000000E+00  0.00000000E+00
  0.00000000E+00  0.00000000E+00  0.00000000E+00
  0.00000000E+00  0.00000000E+00  0.00000000E+00
  0.00000000E+00  0.00000000E+00  0.00000000E+00
  0.00000000E+00  0.00000000E+00  0.00000000E+00
  0.00000000E+00  0.00000000E+00  0.00000000E+00
  0.00000000E+00  0.00000000E+00  0.00000000E+00
  0.00000000E+00  0.00000000E+00  0.00000000E+00
  0.00000000E+00  0.00000000E+00  0.00000000E+00
  0.00000000E+00  0.00000000E+00  0.00000000E+00
  0.00000000E+00  0.00000000E+00  0.00000000E+00
  0.00000000E+00  0.00000000E+00  0.00000000E+00
  0.00000000E+00  0.00000000E+00  0.00000000E+00
  0.00000000E+00  0.00000000E+00  0.00000000E+00
  0.00000000E+00  0.00000000E+00  0.00000000E+00
  0.00000000E+00  0.00000000E+00  0.00000000E+00
  0.00000000E+00  0.00000000E+00  0.00000000E+00
  0.00000000E+00  0.00000000E+00  0.00000000E+00
  0.00000000E+00  0.00000000E+00  0.00000000E+00
  0.00000000E+00  0.00000000E+00  0.00000000E+00
  0.00000000E+00  0.00000000E+00  0.00000000E+00
  0.00000000E+00  0.00000000E+00  0.00000000E+00
  0.00000000E+00  0.00000000E+00  0.00000000E+00
  0.00000000E+00  0.00000000E+00  0.00000000E+00
  0.00000000E+00  0.00000000E+00  0.00000000E+00
  0.00000000E+00  0.00000000E+00  0.00000000E+00
  0.00000000E+00  0.00000000E+00  0.00000000E+00
  0.00000000E+00  0.00000000E+00  0.00000000E+00
  0.00000000E+00  0.00000000E+00  0.00000000E+00
  0.00000000E+00  0.00000000E+00  0.00000000E+00
  0.00000000E+00  0.00000000E+00  0.00000000E+00
  0.00000000E+00  0.00000000E+00  0.00000000E+00
  0.00000000E+00  0.00000000E+00  0.00000000E+00
  0.00000000E+00  0.00000000E+00  0.00000000E+00
  0.00000000E+00  0.00000000E+00  0.00000000E+00
  0.00000000E+00  0.00000000E+00  0.00000000E+00
  0.00000000E+00  0.00000000E+00  0.00000000E+00
  0.00000000E+00  0.00000000E+00  0.00000000E+00
  0.00000000E+00  0.00000000E+00  0.00000000E+00
  0.00000000E+00  0.00000000E+00  0.00000000E+00
  0.00000000E+00  0.00000000E+00  0.00000000E+00
  0.00000000E+00  0.00000000E+00  0.00000000E+00
  0.00000000E+00  0.00000000E+00  0.00000000E+00
  0.00000000E+00  0.00000000E+00  0.00000000E+00
  0.00000000E+00  0.00000000E+00  0.00000000E+00
  0.00000000E+00  0.00000000E+00  0.00000000E+00
  0.00000000E+00  0.00000000E+00  0.00000000E+00
  0.00000000E+00  0.00000000E+00  0.00000000E+00
  0.00000000E+00  0.00000000E+00  0.00000000E+00
