AMSinput                                
   1.00000000000000     
    15.9071598052999992    0.0000000000000000    0.0000000000000000
    -7.9843851646999999   13.7328462818000006    0.0000000000000000
     0.2660516212000000   -0.8181687863000000   20.1446272017999988
   Mo   Au   S    Si
    24     1    50    32
Direct
  0.0692374110000031  0.1274786440000000  0.3186630009999973
  0.0694155320000007  0.3258928360000013  0.3342356679999980
  0.0609856579999999  0.5169967409999998  0.3325523139999973
  0.0697682569999998  0.7243745919999967  0.3117051119999985
  0.0691980419999965  0.9252123830000016  0.3094586129999968
  0.2718452809999974  0.1276974680000009  0.3185058830000003
  0.2704510690000035  0.3278821110000010  0.3307165499999982
  0.2697368560000015  0.5269608500000018  0.3387788530000009
  0.2677296100000035  0.7235882880000020  0.3284052910000028
  0.2713530660000032  0.9250871540000034  0.3171361980000000
  0.4710535999999976  0.1259618400000022  0.3308882119999978
  0.4707429409999975  0.3272341190000034  0.3331807260000019
  0.4689098599999966  0.5272417070000017  0.3381256759999971
  0.4683532709999980  0.7258960599999966  0.3385040459999971
  0.4699408410000032  0.9260870809999986  0.3330564500000008
  0.6694442630000026  0.1264691350000007  0.3364357049999995
  0.6703342799999987  0.3292319769999992  0.3360943200000008
  0.6666510700000003  0.5194323059999988  0.3302244249999973
  0.6673265100000023  0.7244629859999989  0.3277829889999992
  0.6676920060000029  0.9261174199999971  0.3329581919999995
  0.8672629590000014  0.1248650400000031  0.3311142920000023
  0.8732985850000006  0.3289903100000018  0.3372488620000027
  0.8667895789999989  0.7252531649999980  0.3112022879999969
  0.8663867120000006  0.9251704220000008  0.3169076140000016
  0.8622280960000026  0.5005919930000005  0.3557009700000009
  0.1392266599999985  0.0627454369999967  0.2353047730000029
  0.1396201100000027  0.2646418510000004  0.2437311859999980
  0.1385751959999979  0.4557980000000015  0.2598659690000034
  0.1388515379999973  0.6466521019999973  0.2415285109999985
  0.1409165860000030  0.8557999730000034  0.2330691220000034
  0.3413955870000009  0.0587014999999980  0.2398850769999967
  0.3402814570000032  0.2646754379999976  0.2436695399999991
  0.3368128839999969  0.4600026909999997  0.2596007289999989
  0.3369411529999979  0.6530252700000005  0.2584058639999967
  0.3407591879999998  0.8513450029999987  0.2417323139999965
  0.5372207160000002  0.0544303360000029  0.2561602290000025
  0.5350801940000025  0.2553382219999989  0.2571949660000001
  0.5307926540000025  0.4562362429999993  0.2579346300000012
  0.5295435789999985  0.6534430379999989  0.2579832380000013
  0.5327297449999975  0.8517629500000012  0.2580926119999987
  0.7320404649999972  0.0543981009999968  0.2561184759999975
  0.7363871929999988  0.2561399040000012  0.2615801689999984
  0.7217713000000003  0.4447137120000022  0.2417258019999977
  0.7226302620000027  0.6482596399999991  0.2403783500000003
  0.7253110999999990  0.8518809079999983  0.2414318320000035
  0.9329856629999966  0.0586687400000017  0.2397981290000004
  0.9357373710000019  0.2547298670000018  0.2580288349999975
  0.9381899239999996  0.4427848159999996  0.2402217690000015
  0.9341130849999999  0.6540218000000024  0.2325063500000013
  0.9304871559999981  0.8562763930000017  0.2328097219999989
  0.1352344009999982  0.0593482550000033  0.3900905850000029
  0.1358297470000025  0.2571344670000002  0.4039146009999968
  0.1374186130000012  0.4619055690000025  0.4131660760000031
  0.1313580130000034  0.6638348099999973  0.3985584679999974
  0.1346587540000002  0.8631051180000000  0.3880330920000006
  0.3305351440000024  0.0594422220000013  0.3976286050000013
  0.3331569139999999  0.2578851880000030  0.4033262729999976
  0.3352082970000012  0.4600751999999986  0.4147142770000016
  0.3335798080000032  0.6672315599999976  0.4138387739999985
  0.3312415480000013  0.8638447519999986  0.4018103780000004
  0.5337723490000030  0.0626408760000032  0.4118078950000026
  0.5323629379999986  0.2597073609999967  0.4108474550000025
  0.5356733799999986  0.4631468950000013  0.4121488629999988
  0.5422047969999966  0.6672581429999980  0.4133418199999994
  0.5374798180000013  0.8662290569999982  0.4129824039999974
  0.7380400899999984  0.0622479210000009  0.4119165839999965
  0.7372584339999975  0.2642974259999988  0.4136968259999989
  0.7223001719999971  0.4600272180000005  0.4182908829999974
  0.7415835859999973  0.6649211650000026  0.3977700769999970
  0.7420029040000031  0.8641042109999972  0.4015421269999990
  0.9393903019999996  0.0588557530000031  0.3977192340000002
  0.9374291299999982  0.2574175600000004  0.4115819330000008
  0.9483863119999967  0.4553819599999969  0.4243398309999975
  0.9390552639999967  0.6699179410000013  0.3890067040000034
  0.9385928510000028  0.8633272049999974  0.3878307640000003
  0.0716395009999999  0.1714821759999978  0.0915085899999966
  0.0799141820000031  0.4300502540000011  0.1087441820000024
  0.0765835050000021  0.6801333430000014  0.0859490039999997
  0.0724167750000007  0.9237723350000024  0.0804864170000030
  0.3205002549999989  0.1715392620000031  0.0915793779999987
  0.3182047009999991  0.4163760240000016  0.1029106969999987
  0.3216308949999984  0.6813742519999977  0.0962334199999972
  0.3236945270000007  0.9278910159999967  0.0896843080000025
  0.5757950539999968  0.1867508139999998  0.1138242480000002
  0.5703208449999977  0.4300177100000013  0.1098819449999979
  0.5796255469999991  0.6814540029999989  0.0955855770000014
  0.5743981000000034  0.9293106200000025  0.1107768270000022
  0.8305280800000006  0.1861099300000006  0.1129294340000015
  0.8278021220000014  0.4362657069999969  0.0975127520000001
  0.8243253830000015  0.6803259249999982  0.0854111610000032
  0.8246724010000008  0.9278208610000007  0.0893637459999965
  0.1530226320000025  0.0867924690000024  0.1259973940000023
  0.1533135470000033  0.3335472640000035  0.1413029730000019
  0.1572933050000032  0.6043173670000002  0.1358369740000001
  0.1559887530000026  0.8473626379999999  0.1236970499999970
  0.4004402759999977  0.0918131170000009  0.1351447850000014
  0.3986566660000008  0.3334896559999976  0.1413728300000017
  0.4061063830000009  0.5929008720000013  0.1107415849999995
  0.4009356800000035  0.8478700519999975  0.1379809080000030
  0.6601591709999965  0.1014856990000013  0.1374670570000021
  0.6666315200000028  0.3632911440000015  0.1457997259999999
  0.6656731960000002  0.6046391730000025  0.1349361389999970
  0.6654207110000030  0.8478642110000010  0.1375650609999965
  0.9102264050000031  0.0916096569999993  0.1350030300000000
  0.9149927500000032  0.3625574109999974  0.1442084310000027
  0.9140658970000004  0.6094554660000000  0.1281844230000004
  0.9105994109999997  0.8474549649999972  0.1234069619999971
 
  0.00000000E+00  0.00000000E+00  0.00000000E+00
  0.00000000E+00  0.00000000E+00  0.00000000E+00
  0.00000000E+00  0.00000000E+00  0.00000000E+00
  0.00000000E+00  0.00000000E+00  0.00000000E+00
  0.00000000E+00  0.00000000E+00  0.00000000E+00
  0.00000000E+00  0.00000000E+00  0.00000000E+00
  0.00000000E+00  0.00000000E+00  0.00000000E+00
  0.00000000E+00  0.00000000E+00  0.00000000E+00
  0.00000000E+00  0.00000000E+00  0.00000000E+00
  0.00000000E+00  0.00000000E+00  0.00000000E+00
  0.00000000E+00  0.00000000E+00  0.00000000E+00
  0.00000000E+00  0.00000000E+00  0.00000000E+00
  0.00000000E+00  0.00000000E+00  0.00000000E+00
  0.00000000E+00  0.00000000E+00  0.00000000E+00
  0.00000000E+00  0.00000000E+00  0.00000000E+00
  0.00000000E+00  0.00000000E+00  0.00000000E+00
  0.00000000E+00  0.00000000E+00  0.00000000E+00
  0.00000000E+00  0.00000000E+00  0.00000000E+00
  0.00000000E+00  0.00000000E+00  0.00000000E+00
  0.00000000E+00  0.00000000E+00  0.00000000E+00
  0.00000000E+00  0.00000000E+00  0.00000000E+00
  0.00000000E+00  0.00000000E+00  0.00000000E+00
  0.00000000E+00  0.00000000E+00  0.00000000E+00
  0.00000000E+00  0.00000000E+00  0.00000000E+00
  0.00000000E+00  0.00000000E+00  0.00000000E+00
  0.00000000E+00  0.00000000E+00  0.00000000E+00
  0.00000000E+00  0.00000000E+00  0.00000000E+00
  0.00000000E+00  0.00000000E+00  0.00000000E+00
  0.00000000E+00  0.00000000E+00  0.00000000E+00
  0.00000000E+00  0.00000000E+00  0.00000000E+00
  0.00000000E+00  0.00000000E+00  0.00000000E+00
  0.00000000E+00  0.00000000E+00  0.00000000E+00
  0.00000000E+00  0.00000000E+00  0.00000000E+00
  0.00000000E+00  0.00000000E+00  0.00000000E+00
  0.00000000E+00  0.00000000E+00  0.00000000E+00
  0.00000000E+00  0.00000000E+00  0.00000000E+00
  0.00000000E+00  0.00000000E+00  0.00000000E+00
  0.00000000E+00  0.00000000E+00  0.00000000E+00
  0.00000000E+00  0.00000000E+00  0.00000000E+00
  0.00000000E+00  0.00000000E+00  0.00000000E+00
  0.00000000E+00  0.00000000E+00  0.00000000E+00
  0.00000000E+00  0.00000000E+00  0.00000000E+00
  0.00000000E+00  0.00000000E+00  0.00000000E+00
  0.00000000E+00  0.00000000E+00  0.00000000E+00
  0.00000000E+00  0.00000000E+00  0.00000000E+00
  0.00000000E+00  0.00000000E+00  0.00000000E+00
  0.00000000E+00  0.00000000E+00  0.00000000E+00
  0.00000000E+00  0.00000000E+00  0.00000000E+00
  0.00000000E+00  0.00000000E+00  0.00000000E+00
  0.00000000E+00  0.00000000E+00  0.00000000E+00
  0.00000000E+00  0.00000000E+00  0.00000000E+00
  0.00000000E+00  0.00000000E+00  0.00000000E+00
  0.00000000E+00  0.00000000E+00  0.00000000E+00
  0.00000000E+00  0.00000000E+00  0.00000000E+00
  0.00000000E+00  0.00000000E+00  0.00000000E+00
  0.00000000E+00  0.00000000E+00  0.00000000E+00
  0.00000000E+00  0.00000000E+00  0.00000000E+00
  0.00000000E+00  0.00000000E+00  0.00000000E+00
  0.00000000E+00  0.00000000E+00  0.00000000E+00
  0.00000000E+00  0.00000000E+00  0.00000000E+00
  0.00000000E+00  0.00000000E+00  0.00000000E+00
  0.00000000E+00  0.00000000E+00  0.00000000E+00
  0.00000000E+00  0.00000000E+00  0.00000000E+00
  0.00000000E+00  0.00000000E+00  0.00000000E+00
  0.00000000E+00  0.00000000E+00  0.00000000E+00
  0.00000000E+00  0.00000000E+00  0.00000000E+00
  0.00000000E+00  0.00000000E+00  0.00000000E+00
  0.00000000E+00  0.00000000E+00  0.00000000E+00
  0.00000000E+00  0.00000000E+00  0.00000000E+00
  0.00000000E+00  0.00000000E+00  0.00000000E+00
  0.00000000E+00  0.00000000E+00  0.00000000E+00
  0.00000000E+00  0.00000000E+00  0.00000000E+00
  0.00000000E+00  0.00000000E+00  0.00000000E+00
  0.00000000E+00  0.00000000E+00  0.00000000E+00
  0.00000000E+00  0.00000000E+00  0.00000000E+00
  0.00000000E+00  0.00000000E+00  0.00000000E+00
  0.00000000E+00  0.00000000E+00  0.00000000E+00
  0.00000000E+00  0.00000000E+00  0.00000000E+00
  0.00000000E+00  0.00000000E+00  0.00000000E+00
  0.00000000E+00  0.00000000E+00  0.00000000E+00
  0.00000000E+00  0.00000000E+00  0.00000000E+00
  0.00000000E+00  0.00000000E+00  0.00000000E+00
  0.00000000E+00  0.00000000E+00  0.00000000E+00
  0.00000000E+00  0.00000000E+00  0.00000000E+00
  0.00000000E+00  0.00000000E+00  0.00000000E+00
  0.00000000E+00  0.00000000E+00  0.00000000E+00
  0.00000000E+00  0.00000000E+00  0.00000000E+00
  0.00000000E+00  0.00000000E+00  0.00000000E+00
  0.00000000E+00  0.00000000E+00  0.00000000E+00
  0.00000000E+00  0.00000000E+00  0.00000000E+00
  0.00000000E+00  0.00000000E+00  0.00000000E+00
  0.00000000E+00  0.00000000E+00  0.00000000E+00
  0.00000000E+00  0.00000000E+00  0.00000000E+00
  0.00000000E+00  0.00000000E+00  0.00000000E+00
  0.00000000E+00  0.00000000E+00  0.00000000E+00
  0.00000000E+00  0.00000000E+00  0.00000000E+00
  0.00000000E+00  0.00000000E+00  0.00000000E+00
  0.00000000E+00  0.00000000E+00  0.00000000E+00
  0.00000000E+00  0.00000000E+00  0.00000000E+00
  0.00000000E+00  0.00000000E+00  0.00000000E+00
  0.00000000E+00  0.00000000E+00  0.00000000E+00
  0.00000000E+00  0.00000000E+00  0.00000000E+00
  0.00000000E+00  0.00000000E+00  0.00000000E+00
  0.00000000E+00  0.00000000E+00  0.00000000E+00
  0.00000000E+00  0.00000000E+00  0.00000000E+00
  0.00000000E+00  0.00000000E+00  0.00000000E+00
  0.00000000E+00  0.00000000E+00  0.00000000E+00
